ITEM: TIMESTEP
0
ITEM: NUMBER OF ATOMS
6144
ITEM: BOX BOUNDS pp pp pp
0.0000000000000000e+00 2.4889399999999998e+01
0.0000000000000000e+00 4.9778799999999997e+01
0.0000000000000000e+00 4.9778799999999997e+01
ITEM: ATOMS id type x y z q fx fy fz
1 1 11.83 2.56 2.18 -0.418491 0.276292 0.657266 -0.200478
2 1 5.36 6 1.81 -0.356018 0.340913 0.424419 -0.894529
3 1 12.17 7.34 2.71 -0.375672 0.108628 -0.210964 -1.85837
4 1 3.38 4.28 4.84 -0.401226 0.921435 -0.302086 -0.57477
5 1 4.54 11.73 11.9 -0.352542 1.2109 0.715048 0.323231
6 1 7.34 0.18 2.18 -0.375672 -0.527883 1.20548 -1.95301
7 1 5.73 9.9 10.31 -0.42566 0.260746 0.0438541 0.365951
8 1 5.32 11.19 1.83 -0.352291 -0.145314 -0.360892 0.00940867
9 1 9.39 11.14 1.1 -0.384824 0.872347 -1.54212 -0.918591
10 1 12.06 0.64 8.92 -0.432942 1.38582 0.30858 -1.86891
11 1 5.01 7.72 11.74 -0.331211 1.05765 -0.0925369 -0.57852
12 1 3.64 3.19 1.08 -0.329397 0.448993 1.35171 0.0296337
13 1 11.88 10.9 4.7 -0.392604 0.205192 1.05594 -2.45396
14 1 3.88 8.05 2.51 -0.464721 -0.268882 0.355998 0.230427
15 1 9.82 9.16 10.18 -0.365582 0.339124 1.66959 0.487153
16 1 11 5.31 5.17 -0.319963 0.138432 0.0561325 1.91461
17 1 0.97 4.12 0.84 -0.355457 0.745155 0.775261 -0.737707
18 1 1.24 5.99 4.76 -0.374759 -0.193296 0.928647 -0.354905
19 1 10.1 9.09 3.32 -0.354105 0.910857 0.645132 -2.49251
20 1 8.39 5.72 10.39 -0.373467 0.806803 -0.606276 -1.83739
21 1 8.06 4.72 1.3 -0.36779 0.70409 -2.90775 -0.607372
22 1 3.23 3.34 8.26 -0.401809 2.13811 -0.397578 -0.157469
23 1 5.02 6.21 7.29 -0.410388 -0.430382 0.366364 -0.264896
24 1 3.94 10.55 3.95 -0.402417 0.433453 0.317441 -0.0584601
25 1 6.25 4.56 4.21 -0.380616 -0.393418 -0.784978 -0.268448
26 1 12.18 2.35 11.11 -0.382165 -0.847402 -0.742874 1.12305
27 1 6.76 8.57 4.07 -0.403468 -1.14814 -0.761849 -0.553758
28 1 5.87 5.84 9.79 -0.349097 -2.30361 0.637169 -0.27296
29 1 2.18 6.91 6.99 -0.400385 -0.466051 0.744032 1.54716
30 1 10.89 7.69 6.78 -0.350545 0.885482 0.570879 0.0353131
31 1 8.03 4.28 6.57 -0.327247 0.482398 0.0230707 -0.0798656
32 1 5.29 1.92 11.56 -0.42046 -1.16672 0.352028 0.519732
33 1 1.53 12.16 3.45 -0.410573 0.411215 -0.955768 0.467824
34 1 2.04 5.49 9.71 -0.307416 -0.567458 1.07233 -2.10706
35 1 6.66 9.05 1.21 -0.337037 -1.61834 -1.07734 -0.67023
36 1 11.75 6.18 11.01 -0.375509 0.109219 0.0674137 -0.490549
37 1 6.11 3.07 7.96 -0.386894 0.529734 -0.930106 -1.62601
38 1 8.22 1.38 9.43 -0.395923 -0.580882 0.677705 -0.13949
39 1 1.31 2.02 7.09 -0.381656 1.03093 0.0207561 1.57356
40 1 9.48 2.11 5.92 -0.386543 -0.466552 -1.80298 1.20748
41 1 9.33 3.34 10.97 -0.415654 0.367231 -0.157008 0.177852
42 1 1.31 8.49 0.81 -0.391659 -0.324865 -1.14431 0.312416
43 1 11.25 3.48 7.51 -0.362952 -2.51324 0.883552 -0.60032
44 1 11.7 0.33 0.6 -0.377211 -1.74595 -0.0720724 1.00755
45 1 7.63 2.04 0.28 -0.388923 0.179851 0.446091 1.55236
46 1 8.86 9.52 7.4 -0.387579 -0.342429 0.412178 -1.61065
47 1 2.01 11.54 6.89 -0.409735 0.352758 -0.503285 0.166535
48 1 8.02 11.27 4.66 -0.386294 -1.67357 -0.912977 -0.155677
49 1 5.82 9.18 7.71 -0.322041 -1.62595 0.149825 0.939799
50 1 8.11 11.19 11.22 -0.344452 0.363674 1.24924 -0.544007
51 1 5.94 0.84 5.91 -0.430298 0.34542 0.00805987 0.132125
52 1 1.88 11.66 0.64 -0.447611 -0.0496642 -0.645407 0.59834
53 1 4.66 11.28 6.73 -0.350743 -0.301462 -0.466354 -1.15937
54 1 10.32 6.26 0.89 -0.326365 0.996649 -0.777115 1.09354
55 1 2.01 11.07 10.33 -0.382521 -0.874414 1.41953 0.876559
56 1 5.36 2.06 3.14 -0.366244 -1.58903 1.40303 -0.800886
57 1 8.56 7.59 12.17 -0.41632 -0.455298 -0.0905739 0.376136
58 1 10.51 5.81 8.66 -0.394248 0.641333 1.4569 0.242618
59 1 2.37 6.23 12.1 -0.416527 -0.176588 0.565266 1.08135
60 1 0.3 8.77 10.05 -0.378106 1.90131 0.678167 1.19039
61 1 9.47 12.13 7.57 -0.329556 -1.4044 0.15037 0.698053
62 1 1.41 2.32 4.17 -0.409847 -0.897517 2.0305 -1.61841
63 1 9.69 3.69 3.56 -0.385426 -0.312374 -0.0177777 0.00842598
64 1 0.75 9.22 7.39 -0.389396 -0.0507572 -1.95382 0.371105
65 2 11.09 2.87 2.74 0.191007 0.242633 0.24961 -0.242649
66 2 5.51 5.51 2.6 0.193885 0.173012 -0.778963 1.257
67 2 0.24 6.8 3.29 0.202655 0.689785 -0.383494 1.0841
68 2 4.28 4.19 4.46 0.179041 -0.617818 0.498771 0.550837
69 2 3.63 11.56 11.76 0.196223 -1.92571 -0.273383 -0.129463
70 2 6.53 12.07 1.99 0.175621 -0.00358536 -0.0767685 0.0487031
71 2 5.37 9.14 10.85 0.192166 0.344533 0.250825 -0.896837
72 2 5.74 10.31 1.64 0.184005 0.044191 0.251687 0.0827949
73 2 8.71 11.07 0.41 0.17763 0.422535 -0.0590884 -0.677237
74 2 0.27 1.04 8.27 0.17344 -1.12379 -0.989651 0.443652
75 2 5.46 7.08 11.15 0.180688 0.237305 0.266789 0.0569011
76 2 3.84 4.17 1.06 0.193773 -0.430973 -1.59744 0.0114861
77 2 11.55 10.19 4.15 0.193318 -0.344362 -0.23831 -0.19774
78 2 3 8.17 2.14 0.185159 0.135034 -0.081567 -0.0868399
79 2 9.53 10.04 10.56 0.183595 0.0382031 -1.11774 -0.571168
80 2 11.18 4.84 6.05 0.169879 -0.438847 0.44106 -1.51325
81 2 0.68 3.76 12.44 0.177371 -0.291527 -0.537371 -0.24224
82 2 0.43 5.51 4.88 0.191063 -0.911678 -0.445059 0.172007
83 2 9.51 9.48 3.94 0.198768 -0.777875 0.453476 0.709551
84 2 9.08 5.89 9.68 0.183631 -0.873535 -0.131884 0.694468
85 2 7.92 3.83 0.8 0.157297 -0.370777 1.99011 0.390004
86 2 4.23 3.22 8.21 0.191194 -1.42391 0.140269 -0.0056843
87 2 5.27 5.9 8.19 0.18637 0.231095 -0.0760246 -0.406449
88 2 4.44 10.9 3.14 0.186774 -0.369915 -0.593137 0.691886
89 2 6.93 4.56 4.89 0.1968 0.140646 0.238379 0.137526
90 2 11.88 1.61 11.75 0.177225 0.613584 1.15346 -0.980076
91 2 6.79 8.54 3.09 0.175367 0.0995732 0.218341 0.449167
92 2 5.62 4.99 10.13 0.221124 0.00680012 -0.644039 0.23631
93 2 3.09 6.66 6.98 0.191092 1.4339 -0.115647 0.191251
94 2 11.73 8.22 6.86 0.191114 -0.600428 -0.543269 -0.0195835
95 2 8.4 3.45 6.18 0.180759 0.29955 0.121731 0.376315
96 2 4.64 2.37 12.16 0.183435 0.774013 -0.148317 -0.517204
97 2 0.74 11.69 3.86 0.193332 1.24462 0.486263 -0.165089
98 2 1.1 5.3 9.72 0.198266 -0.394057 -0.607507 0.476836
99 2 7.54 9.11 0.83 0.192116 -0.0556639 -0.517782 -0.239858
100 2 11.36 6.2 11.9 0.192144 -0.194152 -0.0569318 0.0439445
101 2 5.85 2.21 7.53 0.183621 0.497816 1.05771 0.321714
102 2 8.81 2.01 9.89 0.182685 0.0117984 -0.0969089 -0.0594971
103 2 2.17 2.43 7.46 0.202487 -1.14915 -0.170402 -0.334925
104 2 10.1 2.53 6.55 0.181258 0.112967 -0.135626 -0.230583
105 2 9.07 4.29 10.91 0.184907 -0.265496 -0.504576 0.000998228
106 2 0.64 8.13 1.45 0.199679 0.509363 0.674754 -0.30853
107 2 11.12 4.2 8.14 0.202259 -0.18343 0.403116 0.312252
108 2 11.03 12.03 0.58 0.195342 0.754073 1.17491 0.0467454
109 2 6.83 1.84 12.19 0.187672 -0.296879 0.227228 0.205505
110 2 9.13 10.45 7.25 0.185572 -0.160227 0.106169 -0.443075
111 2 1.76 12.44 6.8 0.185592 -1.18377 1.35742 -0.0950426
112 2 7.37 11.88 5.08 0.175798 0.637192 -0.4743 -0.169082
113 2 5.59 8.29 7.44 0.218995 0.0580423 -0.60037 -0.182302
114 2 8.14 12.12 10.86 0.195424 -0.210887 -1.20675 0.445494
115 2 5.48 0.06 6.32 0.188941 0.122005 0.408542 -0.0842245
116 2 0.99 11.99 0.41 0.187845 0.420681 0.0199712 0.498791
117 2 4.54 10.95 5.79 0.183359 -0.0166747 0.130481 0.932391
118 2 10.94 6.29 1.65 0.201455 -0.0271541 0.59344 -0.475447
119 2 2.52 10.55 9.76 0.218254 1.17315 -0.879298 -1.41999
120 2 4.74 2.41 2.42 0.184875 0.756472 -0.550821 1.19337
121 2 8.84 8.27 11.56 0.185769 0.648331 0.253482 -0.371371
122 2 10.89 6.06 9.58 0.177024 -0.149983 -0.450764 -1.36993
123 2 2.15 5.99 11.18 0.183133 0.198181 0.153321 -0.20836
124 2 0.49 9.06 9.13 0.170817 -0.195474 -0.175706 0.133148
125 2 8.69 12.34 8.15 0.197813 0.866204 0.118056 -0.768171
126 2 1.76 1.44 4.07 0.192692 -0.221689 -1.01336 -0.531421
127 2 10.05 4.44 4.1 0.192316 -0.125976 -0.745345 -0.0156391
128 2 1.44 8.49 7.32 0.197896 -0.576756 0.967147 -0.266635
129 2 12.25 3.32 1.68 0.205745 -0.63771 -0.790004 0.707792
130 2 6.27 6.22 1.56 0.19505 -0.288687 -0.189983 -0.31042
131 2 11.5 7.85 3.14 0.211303 -0.832453 0.597933 0.813039
132 2 2.96 3.44 4.61 0.180348 -0.533169 -0.0679213 0.0315758
133 2 5.04 11.17 11.3 0.203951 0.127393 -0.381054 -0.585064
134 2 7.6 12.39 3.03 0.186688 0.821782 -0.728647 2.61786
135 2 5.94 9.68 9.37 0.201526 -0.668937 -0.412487 0.824157
136 2 4.93 11.46 0.96 0.192242 -0.183056 0.0484261 -0.0612306
137 2 8.92 11.68 1.69 0.18221 -0.842538 1.45771 1.60206
138 2 12.07 1.36 9.54 0.171108 -0.38888 0.418156 1.32796
139 2 4.17 7.28 11.8 0.187175 -1.26448 -0.13249 0.621878
140 2 2.67 3.09 1.05 0.196793 0.335566 0.328203 0.0513123
141 2 11.89 10.59 5.56 0.212694 0.132246 -0.756152 2.53354
142 2 4.27 7.23 2.16 0.187744 0.0819534 0.0437404 -0.0145418
143 2 10.8 9.22 10.18 0.189919 -0.381737 -0.312463 0.000711377
144 2 10.68 6.2 5.44 0.199547 0.402562 -0.469589 -0.0890553
145 2 1.51 4.9 0.53 0.187831 -0.395801 -0.206702 0.454036
146 2 1.94 5.36 4.61 0.202921 1.01914 -0.67695 -0.246072
147 2 10.02 9.64 2.47 0.193894 -0.0946635 -0.934637 1.59327
148 2 8.41 6.43 11.04 0.181308 0.148157 0.822107 0.803449
149 2 8.58 4.29 2.01 0.171345 -0.324565 0.687854 0.564212
150 2 3.12 4.28 8.41 0.18604 -0.390225 -0.00351215 0.188239
151 2 5.12 5.54 6.6 0.200548 0.11395 0.0927023 0.568105
152 2 3.97 9.58 3.89 0.200319 -0.122319 0.404593 -0.363297
153 2 6.17 3.63 3.9 0.180499 0.063978 0.428584 0.0335318
154 2 11.4 2.92 10.99 0.186121 0.0360066 -0.322498 0.13068
155 2 5.96 8.02 4.26 0.206263 1.14918 0.802717 -0.0191851
156 2 6.81 5.9 9.83 0.201106 2.05204 -0.296832 0.216441
157 2 1.83 6.59 6.16 0.187749 -0.772058 -0.35209 -1.05867
158 2 10.19 8.36 6.88 0.185475 -0.393801 -0.00300834 -0.0332405
159 2 8.74 4.67 7.12 0.196504 -0.744398 -0.32915 -0.441254
160 2 4.84 1.08 11.38 0.193743 0.3669 -0.114318 0.028673
161 2 2.38 11.71 3.7 0.187953 -1.23535 0.0337362 0.0339456
162 2 2.02 6.1 8.92 0.193418 0.561647 -0.413315 0.789846
163 2 6.05 8.48 0.61 0.185432 1.45641 0.977455 0.978243
164 2 12.12 7.05 10.81 0.183183 0.12491 0.275206 0.110951
165 2 6.81 3.46 7.31 0.173813 -1.21257 -0.276896 1.47212
166 2 7.52 1.99 9.1 0.171167 0.337088 -0.7254 0.216959
167 2 1.25 2.26 6.18 0.198333 -0.100618 0.233889 -1.44319
168 2 9.31 1.19 6.35 0.177467 0.39201 1.87789 -1.0092
169 2 8.84 2.9 11.69 0.189554 0.0720455 0.182739 -0.11594
170 2 1.39 9.44 0.85 0.203751 -0.14657 0.597101 0.00257826
171 2 12.13 3.22 7.5 0.198004 2.70529 -1.0304 0.0528918
172 2 11.38 0.95 1.34 0.189016 1.08992 -0.90466 -1.35613
173 2 7.43 1.82 1.24 0.192864 0.551761 -0.285862 -1.97594
174 2 9.15 9.43 8.28 0.178035 0.441264 -0.710188 2.23735
175 2 2.97 11.66 6.88 0.189438 0.45882 -0.880804 0.139718
176 2 7.5 10.43 4.47 0.181808 0.703653 1.2892 0.43193
177 2 6.69 9.4 7.47 0.206107 2.2719 -0.0386729 -0.808157
178 2 7.29 10.77 10.93 0.190335 -0.341837 -0.0505551 -0.227428
179 2 5.45 1.07 5.12 0.197987 -0.070959 0.236641 -0.237762
180 2 1.92 11.57 1.62 0.180733 -0.408999 0.667422 -0.854437
181 2 5.05 10.55 7.26 0.212011 -0.248132 -0.144002 -0.376963
182 2 9.73 5.52 1.11 0.183029 -0.544841 -0.0114328 -0.514616
183 2 1.73 11.85 9.82 0.204137 -0.0844864 -0.535834 0.289317
184 2 6.02 1.57 2.67 0.172569 0.700385 -0.752357 -0.238793
185 2 9.34 7.2 0.21 0.198757 -0.392306 0.548763 -0.176818
186 2 10.71 6.56 7.97 0.182266 -0.323126 -1.06155 1.28723
187 2 1.86 7.03 12.37 0.189126 0.480665 -0.368923 -0.146707
188 2 1.08 9.16 10.59 0.184945 -2.28757 -0.741721 -1.18023
189 2 10.19 12.39 8.15 0.190645 0.843609 0.2023 0.0267748
190 2 0.92 2.56 3.28 0.175967 0.878415 -1.05619 2.45227
191 2 9.34 3.01 4.17 0.202541 0.48385 0.409843 -0.157713
192 2 1.11 10.09 7.21 0.213347 0.786978 0.737279 -0.312218
193 1 24.2747 2.56 2.18 -0.418491 0.276292 0.657264 -0.200482
194 1 17.8047 6 1.81 -0.356019 0.340908 0.424427 -0.894537
195 1 24.6147 7.34 2.71 -0.375672 0.108626 -0.210965 -1.85837
196 1 15.8247 4.28 4.84 -0.401226 0.92145 -0.302086 -0.574775
197 1 16.9847 11.73 11.9 -0.352543 1.2109 0.715046 0.323225
198 1 19.7847 0.18 2.18 -0.375672 -0.527872 1.20548 -1.953
199 1 18.1747 9.9 10.31 -0.425659 0.260745 0.0438526 0.365951
200 1 17.7647 11.19 1.83 -0.352291 -0.145304 -0.360901 0.00941512
201 1 21.8347 11.14 1.1 -0.384824 0.872363 -1.54214 -0.918608
202 1 24.5047 0.64 8.92 -0.432942 1.38583 0.308589 -1.86892
203 1 17.4547 7.72 11.74 -0.33121 1.05763 -0.0925287 -0.57851
204 1 16.0847 3.19 1.08 -0.329396 0.449033 1.35172 0.029636
205 1 24.3247 10.9 4.7 -0.392604 0.205193 1.05594 -2.45396
206 1 16.3247 8.05 2.51 -0.464722 -0.268831 0.355973 0.230436
207 1 22.2647 9.16 10.18 -0.365582 0.339089 1.66958 0.487154
208 1 23.4447 5.31 5.17 -0.319963 0.138431 0.056133 1.91461
209 1 13.4147 4.12 0.84 -0.355457 0.745167 0.775276 -0.737709
210 1 13.6847 5.99 4.76 -0.374759 -0.193319 0.928644 -0.354901
211 1 22.5447 9.09 3.32 -0.354105 0.910856 0.645133 -2.49251
212 1 20.8347 5.72 10.39 -0.373468 0.806818 -0.606267 -1.8374
213 1 20.5047 4.72 1.3 -0.36779 0.704107 -2.90775 -0.607356
214 1 15.6747 3.34 8.26 -0.401808 2.13811 -0.397582 -0.15747
215 1 17.4647 6.21 7.29 -0.410388 -0.430387 0.366371 -0.264895
216 1 16.3847 10.55 3.95 -0.402417 0.433447 0.317446 -0.0584549
217 1 18.6947 4.56 4.21 -0.380616 -0.393406 -0.784979 -0.268434
218 1 24.6247 2.35 11.11 -0.382164 -0.847409 -0.742883 1.12306
219 1 19.2047 8.57 4.07 -0.403469 -1.14817 -0.761868 -0.553757
220 1 18.3147 5.84 9.79 -0.349097 -2.30359 0.637169 -0.272958
221 1 14.6247 6.91 6.99 -0.400386 -0.466002 0.744021 1.54717
222 1 23.3347 7.69 6.78 -0.350545 0.885555 0.570857 0.0353094
223 1 20.4747 4.28 6.57 -0.327248 0.48236 0.0230714 -0.0798782
224 1 17.7347 1.92 11.56 -0.42046 -1.1667 0.352041 0.519729
225 1 13.9747 12.16 3.45 -0.410573 0.411221 -0.95577 0.467826
226 1 14.4847 5.49 9.71 -0.307416 -0.567493 1.07232 -2.10706
227 1 19.1047 9.05 1.21 -0.337037 -1.6184 -1.07735 -0.670218
228 1 24.1947 6.18 11.01 -0.375508 0.109219 0.0673987 -0.490559
229 1 18.5547 3.07 7.96 -0.386894 0.529719 -0.930111 -1.626
230 1 20.6647 1.38 9.43 -0.395923 -0.580853 0.677688 -0.139476
231 1 13.7547 2.02 7.09 -0.381656 1.03094 0.0207618 1.57357
232 1 21.9247 2.11 5.92 -0.386543 -0.46656 -1.80298 1.20748
233 1 21.7747 3.34 10.97 -0.415653 0.367229 -0.157007 0.177851
234 1 13.7547 8.49 0.81 -0.391659 -0.324867 -1.14431 0.312418
235 1 23.6947 3.48 7.51 -0.362952 -2.5133 0.883572 -0.60032
236 1 24.1447 0.33 0.6 -0.377211 -1.74591 -0.0720365 1.00755
237 1 20.0747 2.04 0.28 -0.388924 0.179887 0.446102 1.55236
238 1 21.3047 9.52 7.4 -0.38758 -0.34245 0.412159 -1.61067
239 1 14.4547 11.54 6.89 -0.409735 0.352716 -0.503287 0.166535
240 1 20.4647 11.27 4.66 -0.386294 -1.67358 -0.912961 -0.155669
241 1 18.2647 9.18 7.71 -0.322041 -1.6259 0.149843 0.939785
242 1 20.5547 11.19 11.22 -0.344451 0.363595 1.2492 -0.544035
243 1 18.3847 0.84 5.91 -0.430297 0.345389 0.00805571 0.132097
244 1 14.3247 11.66 0.64 -0.447611 -0.0496761 -0.645402 0.598339
245 1 17.1047 11.28 6.73 -0.350742 -0.301473 -0.466336 -1.15938
246 1 22.7647 6.26 0.89 -0.326365 0.99666 -0.777111 1.09355
247 1 14.4547 11.07 10.33 -0.382521 -0.874431 1.41955 0.876569
248 1 17.8047 2.06 3.14 -0.366243 -1.58904 1.40303 -0.80089
249 1 21.0047 7.59 12.17 -0.416319 -0.455267 -0.090576 0.376139
250 1 22.9547 5.81 8.66 -0.394248 0.641318 1.45689 0.242618
251 1 14.8147 6.23 12.1 -0.416527 -0.176596 0.565272 1.08135
252 1 12.7447 8.77 10.05 -0.378106 1.9013 0.678163 1.19039
253 1 21.9147 12.13 7.57 -0.329557 -1.4043 0.150381 0.698064
254 1 13.8547 2.32 4.17 -0.409847 -0.897512 2.03049 -1.6184
255 1 22.1347 3.69 3.56 -0.385426 -0.312395 -0.0178081 0.00842052
256 1 13.1947 9.22 7.39 -0.389396 -0.0507721 -1.95381 0.371109
257 2 23.5347 2.87 2.74 0.191007 0.242633 0.249611 -0.242647
258 2 17.9547 5.51 2.6 0.193885 0.173015 -0.778967 1.25701
259 2 12.6847 6.8 3.29 0.202655 0.689784 -0.383493 1.0841
260 2 16.7247 4.19 4.46 0.179041 -0.617834 0.498772 0.550844
261 2 16.0747 11.56 11.76 0.196223 -1.92571 -0.273382 -0.129462
262 2 18.9747 12.07 1.99 0.175621 -0.00359228 -0.0767734 0.0487029
263 2 17.8147 9.14 10.85 0.192166 0.344538 0.250829 -0.896842
264 2 18.1847 10.31 1.64 0.184005 0.0441884 0.251692 0.0827969
265 2 21.1547 11.07 0.41 0.17763 0.422535 -0.0590859 -0.677234
266 2 12.7147 1.04 8.27 0.17344 -1.12378 -0.989641 0.443638
267 2 17.9047 7.08 11.15 0.180688 0.23732 0.266779 0.0568894
268 2 16.2847 4.17 1.06 0.193773 -0.43098 -1.59744 0.0114861
269 2 23.9947 10.19 4.15 0.193318 -0.344361 -0.238311 -0.197739
270 2 15.4447 8.17 2.14 0.18516 0.134995 -0.081564 -0.0868574
271 2 21.9747 10.04 10.56 0.183595 0.0381944 -1.11773 -0.571165
272 2 23.6247 4.84 6.05 0.169879 -0.438847 0.441062 -1.51325
273 2 13.1247 3.76 12.44 0.177371 -0.291526 -0.53737 -0.24224
274 2 12.8747 5.51 4.88 0.191063 -0.911662 -0.44505 0.172005
275 2 21.9547 9.48 3.94 0.198767 -0.777875 0.453476 0.709552
276 2 21.5247 5.89 9.68 0.183631 -0.873549 -0.13189 0.694478
277 2 20.3647 3.83 0.8 0.157297 -0.370782 1.99011 0.390002
278 2 16.6747 3.22 8.21 0.191194 -1.42391 0.140268 -0.00568435
279 2 17.7147 5.9 8.19 0.18637 0.231094 -0.076027 -0.406447
280 2 16.8847 10.9 3.14 0.186774 -0.369914 -0.593139 0.691884
281 2 19.3747 4.56 4.89 0.1968 0.140634 0.23838 0.137514
282 2 24.3247 1.61 11.75 0.177225 0.613592 1.15347 -0.980083
283 2 19.2347 8.54 3.09 0.175367 0.0995779 0.218342 0.449169
284 2 18.0647 4.99 10.13 0.221124 0.00680074 -0.644038 0.23631
285 2 15.5347 6.66 6.98 0.191091 1.43385 -0.115633 0.191253
286 2 24.1747 8.22 6.86 0.191113 -0.600452 -0.543286 -0.0195859
287 2 20.8447 3.45 6.18 0.180759 0.29956 0.121722 0.376313
288 2 17.0847 2.37 12.16 0.183436 0.774004 -0.148316 -0.5172
289 2 13.1847 11.69 3.86 0.193332 1.24462 0.486263 -0.165089
290 2 13.5447 5.3 9.72 0.198266 -0.394025 -0.607502 0.476836
291 2 19.9847 9.11 0.83 0.192117 -0.0556233 -0.51778 -0.239876
292 2 23.8047 6.2 11.9 0.192143 -0.194161 -0.0569332 0.0439598
293 2 18.2947 2.21 7.53 0.183621 0.497815 1.05771 0.321714
294 2 21.2547 2.01 9.89 0.182685 0.0118023 -0.0969115 -0.0594951
295 2 14.6147 2.43 7.46 0.202487 -1.14916 -0.170407 -0.334929
296 2 22.5447 2.53 6.55 0.181257 0.112968 -0.135627 -0.230581
297 2 21.5147 4.29 10.91 0.184907 -0.265495 -0.50458 0.000999503
298 2 13.0847 8.13 1.45 0.199679 0.509364 0.674753 -0.308532
299 2 23.5647 4.2 8.14 0.202259 -0.183424 0.403112 0.31225
300 2 23.4747 12.03 0.58 0.195342 0.75404 1.17488 0.0467445
301 2 19.2747 1.84 12.19 0.187672 -0.296904 0.227221 0.205494
302 2 21.5747 10.45 7.25 0.185571 -0.160218 0.106187 -0.443076
303 2 14.2047 12.44 6.8 0.185592 -1.18377 1.35742 -0.0950425
304 2 19.8147 11.88 5.08 0.175797 0.63721 -0.474316 -0.169092
305 2 18.0347 8.29 7.44 0.218995 0.0580403 -0.600376 -0.182304
306 2 20.5847 12.12 10.86 0.195423 -0.210877 -1.20674 0.445495
307 2 17.9247 0.06 6.32 0.18894 0.122015 0.408551 -0.0842268
308 2 13.4347 11.99 0.41 0.187844 0.42069 0.0199671 0.498794
309 2 16.9847 10.95 5.79 0.183359 -0.0166704 0.130479 0.932393
310 2 23.3847 6.29 1.65 0.201456 -0.0271709 0.59344 -0.475462
311 2 14.9647 10.55 9.76 0.218254 1.17316 -0.87931 -1.42001
312 2 17.1847 2.41 2.42 0.184874 0.756478 -0.550824 1.19338
313 2 21.2847 8.27 11.56 0.185768 0.648325 0.253474 -0.371363
314 2 23.3347 6.06 9.58 0.177024 -0.149975 -0.45076 -1.36993
315 2 14.5947 5.99 11.18 0.183133 0.198184 0.153321 -0.208357
316 2 12.9347 9.06 9.13 0.170818 -0.195471 -0.175705 0.133147
317 2 21.1347 12.34 8.15 0.197812 0.866156 0.118066 -0.768138
318 2 14.2047 1.44 4.07 0.192692 -0.221692 -1.01335 -0.53142
319 2 22.4947 4.44 4.1 0.192316 -0.125962 -0.745325 -0.015626
320 2 13.8847 8.49 7.32 0.197896 -0.576745 0.967138 -0.266637
321 2 24.6947 3.32 1.68 0.205745 -0.637711 -0.790004 0.707793
322 2 18.7147 6.22 1.56 0.19505 -0.288688 -0.189985 -0.310418
323 2 23.9447 7.85 3.14 0.211303 -0.832453 0.597933 0.813039
324 2 15.4047 3.44 4.61 0.180348 -0.533167 -0.0679214 0.0315751
325 2 17.4847 11.17 11.3 0.203952 0.127393 -0.381053 -0.585064
326 2 20.0447 12.39 3.03 0.186688 0.82178 -0.728647 2.61786
327 2 18.3847 9.68 9.37 0.201526 -0.668941 -0.412487 0.824163
328 2 17.3747 11.46 0.96 0.192241 -0.183063 0.0484294 -0.0612394
329 2 21.3647 11.68 1.69 0.18221 -0.842552 1.45773 1.60208
330 2 24.5147 1.36 9.54 0.171108 -0.388882 0.418156 1.32796
331 2 16.6147 7.28 11.8 0.187175 -1.26448 -0.132488 0.621881
332 2 15.1147 3.09 1.05 0.196793 0.335534 0.328203 0.0513111
333 2 24.3347 10.59 5.56 0.212694 0.132245 -0.756152 2.53354
334 2 16.7147 7.23 2.16 0.187745 0.0819423 0.0437585 -0.0145347
335 2 23.2447 9.22 10.18 0.18992 -0.381694 -0.312465 0.000708844
336 2 23.1247 6.2 5.44 0.199547 0.402563 -0.469589 -0.0890543
337 2 13.9547 4.9 0.53 0.18783 -0.395814 -0.206718 0.45404
338 2 14.3847 5.36 4.61 0.202921 1.01915 -0.676957 -0.246074
339 2 22.4647 9.64 2.47 0.193895 -0.0946632 -0.934638 1.59327
340 2 20.8547 6.43 11.04 0.181308 0.148154 0.822105 0.803451
341 2 21.0247 4.29 2.01 0.171346 -0.324576 0.687862 0.564199
342 2 15.5647 4.28 8.41 0.18604 -0.390227 -0.003507 0.188239
343 2 17.5647 5.54 6.6 0.200549 0.113953 0.0926975 0.568101
344 2 16.4147 9.58 3.89 0.200319 -0.122316 0.404591 -0.363299
345 2 18.6147 3.63 3.9 0.180499 0.0639783 0.428583 0.0335314
346 2 23.8447 2.92 10.99 0.186121 0.0360065 -0.322495 0.130678
347 2 18.4047 8.02 4.26 0.206262 1.14921 0.802735 -0.0191876
348 2 19.2547 5.9 9.83 0.201106 2.05202 -0.296834 0.216442
349 2 14.2747 6.59 6.16 0.187749 -0.772061 -0.352093 -1.05867
350 2 22.6347 8.36 6.88 0.185476 -0.393847 -0.00297002 -0.0332352
351 2 21.1847 4.67 7.12 0.196505 -0.744372 -0.329141 -0.441239
352 2 17.2847 1.08 11.38 0.193743 0.366887 -0.114333 0.0286707
353 2 14.8247 11.71 3.7 0.187953 -1.23535 0.0337378 0.033944
354 2 14.4647 6.1 8.92 0.193418 0.561649 -0.413315 0.789846
355 2 18.4947 8.48 0.61 0.185432 1.45642 0.977461 0.978249
356 2 24.5647 7.05 10.81 0.183183 0.124918 0.275222 0.110945
357 2 19.2547 3.46 7.31 0.173814 -1.21255 -0.27689 1.47211
358 2 19.9647 1.99 9.1 0.171167 0.337056 -0.725379 0.216944
359 2 13.6947 2.26 6.18 0.198332 -0.100619 0.233889 -1.44319
360 2 21.7547 1.19 6.35 0.177467 0.392016 1.8779 -1.00921
361 2 21.2847 2.9 11.69 0.189554 0.0720455 0.18274 -0.115941
362 2 13.8347 9.44 0.85 0.203751 -0.14657 0.597104 0.00257749
363 2 24.5747 3.22 7.5 0.198004 2.70535 -1.03042 0.0528943
364 2 23.8247 0.95 1.34 0.189017 1.08992 -0.904661 -1.35613
365 2 19.8747 1.82 1.24 0.192864 0.551752 -0.285866 -1.97594
366 2 21.5947 9.43 8.28 0.178035 0.441272 -0.710187 2.23737
367 2 15.4147 11.66 6.88 0.189438 0.458863 -0.880802 0.139719
368 2 19.9447 10.43 4.47 0.181809 0.703654 1.2892 0.43193
369 2 19.1347 9.4 7.47 0.206107 2.27184 -0.0386843 -0.808142
370 2 19.7347 10.77 10.93 0.190335 -0.341772 -0.0505289 -0.227403
371 2 17.8947 1.07 5.12 0.197986 -0.0709367 0.236634 -0.237732
372 2 14.3647 11.57 1.62 0.180734 -0.408999 0.667422 -0.854438
373 2 17.4947 10.55 7.26 0.212011 -0.248122 -0.144015 -0.376955
374 2 22.1747 5.52 1.11 0.183029 -0.54484 -0.0114321 -0.514613
375 2 14.1747 11.85 9.82 0.204137 -0.0844831 -0.535841 0.289322
376 2 18.4647 1.57 2.67 0.172569 0.700383 -0.752356 -0.238794
377 2 21.7847 7.2 0.21 0.198757 -0.392328 0.548768 -0.176826
378 2 23.1547 6.56 7.97 0.182266 -0.323121 -1.06154 1.28723
379 2 14.3047 7.03 12.37 0.189127 0.480671 -0.36893 -0.146708
380 2 13.5247 9.16 10.59 0.184945 -2.28756 -0.741719 -1.18022
381 2 22.6347 12.39 8.15 0.190646 0.843554 0.20228 0.0267308
382 2 13.3647 2.56 3.28 0.175967 0.878412 -1.05619 2.45227
383 2 21.7847 3.01 4.17 0.202541 0.483856 0.409853 -0.157722
384 2 13.5547 10.09 7.21 0.213347 0.786982 0.737282 -0.312219
385 1 11.83 15.0047 2.18 -0.418491 0.276288 0.657276 -0.200476
386 1 5.36 18.4447 1.81 -0.356018 0.340911 0.424414 -0.894527
387 1 12.17 19.7847 2.71 -0.375672 0.108638 -0.210979 -1.85835
388 1 3.38 16.7247 4.84 -0.401225 0.921417 -0.30212 -0.574777
389 1 4.54 24.1747 11.9 -0.352543 1.21089 0.715043 0.323224
390 1 7.34 12.6247 2.18 -0.375672 -0.52787 1.2055 -1.95305
391 1 5.73 22.3447 10.31 -0.425659 0.260735 0.0438291 0.365966
392 1 5.32 23.6347 1.83 -0.352291 -0.14528 -0.360961 0.00941558
393 1 9.39 23.5847 1.1 -0.384823 0.87233 -1.5421 -0.918566
394 1 12.06 13.0847 8.92 -0.432942 1.38582 0.308594 -1.86891
395 1 5.01 20.1647 11.74 -0.331211 1.05766 -0.0925133 -0.578513
396 1 3.64 15.6347 1.08 -0.329397 0.449003 1.35173 0.0296347
397 1 11.88 23.3447 4.7 -0.392604 0.205205 1.05597 -2.45394
398 1 3.88 20.4947 2.51 -0.464721 -0.268897 0.356017 0.230433
399 1 9.82 21.6047 10.18 -0.365583 0.339124 1.66955 0.487144
400 1 11 17.7547 5.17 -0.319962 0.138439 0.0561174 1.9146
401 1 0.97 16.5647 0.84 -0.355457 0.745171 0.775283 -0.737693
402 1 1.24 18.4347 4.76 -0.374759 -0.193312 0.928659 -0.354902
403 1 10.1 21.5347 3.32 -0.354106 0.910858 0.645118 -2.49249
404 1 8.39 18.1647 10.39 -0.373468 0.806804 -0.606252 -1.83736
405 1 8.06 17.1647 1.3 -0.36779 0.704095 -2.90774 -0.60736
406 1 3.23 15.7847 8.26 -0.401808 2.1381 -0.397575 -0.157469
407 1 5.02 18.6547 7.29 -0.410388 -0.430387 0.366369 -0.264905
408 1 3.94 22.9947 3.95 -0.402417 0.433456 0.317491 -0.0584646
409 1 6.25 17.0047 4.21 -0.380616 -0.393419 -0.784997 -0.268453
410 1 12.18 14.7947 11.11 -0.382165 -0.847408 -0.742866 1.12305
411 1 6.76 21.0147 4.07 -0.403468 -1.14814 -0.761852 -0.553762
412 1 5.87 18.2847 9.79 -0.349097 -2.30362 0.637167 -0.272959
413 1 2.18 19.3547 6.99 -0.400385 -0.466052 0.744028 1.54716
414 1 10.89 20.1347 6.78 -0.350545 0.885447 0.570864 0.0353118
415 1 8.03 16.7247 6.57 -0.327248 0.482399 0.0230401 -0.0798825
416 1 5.29 14.3647 11.56 -0.420459 -1.16672 0.352015 0.519728
417 1 1.53 24.6047 3.45 -0.410573 0.411243 -0.955769 0.467823
418 1 2.04 17.9347 9.71 -0.307415 -0.567466 1.07233 -2.10707
419 1 6.66 21.4947 1.21 -0.337037 -1.61834 -1.07733 -0.670218
420 1 11.75 18.6247 11.01 -0.375509 0.109196 0.0673449 -0.490539
421 1 6.11 15.5147 7.96 -0.386894 0.529735 -0.930101 -1.626
422 1 8.22 13.8247 9.43 -0.395923 -0.580873 0.677699 -0.139487
423 1 1.31 14.4647 7.09 -0.381656 1.03092 0.0207583 1.57355
424 1 9.48 14.5547 5.92 -0.386543 -0.466555 -1.80298 1.20748
425 1 9.33 15.7847 10.97 -0.415653 0.367237 -0.157068 0.177866
426 1 1.31 20.9347 0.81 -0.391659 -0.324866 -1.14427 0.312424
427 1 11.25 15.9247 7.51 -0.362952 -2.51323 0.883536 -0.60033
428 1 11.7 12.7747 0.6 -0.377211 -1.74599 -0.0721251 1.00755
429 1 7.63 14.4847 0.28 -0.388923 0.179852 0.446087 1.55236
430 1 8.86 21.9647 7.4 -0.387579 -0.342441 0.412135 -1.61064
431 1 2.01 23.9847 6.89 -0.409735 0.352731 -0.503178 0.166526
432 1 8.02 23.7147 4.66 -0.386294 -1.67356 -0.912993 -0.155689
433 1 5.82 21.6247 7.71 -0.322041 -1.62597 0.149786 0.939785
434 1 8.11 23.6347 11.22 -0.344452 0.363654 1.24916 -0.543985
435 1 5.94 13.2847 5.91 -0.430298 0.345415 0.00804069 0.132136
436 1 1.88 24.1047 0.64 -0.447611 -0.0496657 -0.645409 0.598342
437 1 4.66 23.7247 6.73 -0.350743 -0.301441 -0.46642 -1.15936
438 1 10.32 18.7047 0.89 -0.326365 0.996658 -0.777109 1.09354
439 1 2.01 23.5147 10.33 -0.382521 -0.874393 1.41951 0.876537
440 1 5.36 14.5047 3.14 -0.366244 -1.58903 1.40303 -0.800882
441 1 8.56 20.0347 12.17 -0.41632 -0.455292 -0.0905852 0.376144
442 1 10.51 18.2547 8.66 -0.394248 0.641335 1.45689 0.242617
443 1 2.37 18.6747 12.1 -0.416527 -0.176605 0.56529 1.08136
444 1 0.3 21.2147 10.05 -0.378106 1.90131 0.678161 1.1904
445 1 9.47 24.5747 7.57 -0.329557 -1.40441 0.150378 0.698058
446 1 1.41 14.7647 4.17 -0.409847 -0.897511 2.03049 -1.6184
447 1 9.69 16.1347 3.56 -0.385426 -0.312379 -0.0177869 0.00842678
448 1 0.75 21.6647 7.39 -0.389396 -0.0507555 -1.95376 0.371097
449 2 11.09 15.3147 2.74 0.191006 0.242638 0.249606 -0.242653
450 2 5.51 17.9547 2.6 0.193885 0.173011 -0.778963 1.257
451 2 0.24 19.2447 3.29 0.202655 0.689767 -0.383475 1.08408
452 2 4.28 16.6347 4.46 0.179041 -0.617816 0.498772 0.550836
453 2 3.63 24.0047 11.76 0.196223 -1.9257 -0.273379 -0.12946
454 2 6.53 24.5147 1.99 0.175621 -0.00357622 -0.0767572 0.0486992
455 2 5.37 21.5847 10.85 0.192166 0.344542 0.250849 -0.89685
456 2 5.74 22.7547 1.64 0.184005 0.0441703 0.25174 0.0828086
457 2 8.71 23.5147 0.41 0.17763 0.422534 -0.0590885 -0.677241
458 2 0.27 13.4847 8.27 0.17344 -1.1238 -0.989657 0.443655
459 2 5.46 19.5247 11.15 0.180688 0.237309 0.266779 0.0568942
460 2 3.84 16.6147 1.06 0.193774 -0.430974 -1.59745 0.0114861
461 2 11.55 22.6347 4.15 0.193319 -0.344373 -0.238336 -0.197758
462 2 3 20.6147 2.14 0.18516 0.135041 -0.0815696 -0.0868384
463 2 9.53 22.4847 10.56 0.183594 0.0382019 -1.11771 -0.571159
464 2 11.18 17.2847 6.05 0.169879 -0.438846 0.441056 -1.51324
465 2 0.68 16.2047 12.44 0.177371 -0.291535 -0.537383 -0.242259
466 2 0.43 17.9547 4.88 0.191063 -0.911676 -0.44506 0.172007
467 2 9.51 21.9247 3.94 0.198767 -0.777874 0.453477 0.70955
468 2 9.08 18.3347 9.68 0.183631 -0.873536 -0.131884 0.694467
469 2 7.92 16.2747 0.8 0.157297 -0.370779 1.9901 0.389997
470 2 4.23 15.6647 8.21 0.191194 -1.42391 0.140277 -0.00568342
471 2 5.27 18.3447 8.19 0.18637 0.231098 -0.0760287 -0.406441
472 2 4.44 23.3447 3.14 0.186774 -0.369918 -0.593143 0.691892
473 2 6.93 17.0047 4.89 0.1968 0.140646 0.238381 0.137526
474 2 11.88 14.0547 11.75 0.177225 0.613582 1.15346 -0.980074
475 2 6.79 20.9847 3.09 0.175367 0.0995755 0.218344 0.449169
476 2 5.62 17.4347 10.13 0.221123 0.00679942 -0.644038 0.23631
477 2 3.09 19.1047 6.98 0.191091 1.4339 -0.115647 0.191251
478 2 11.73 20.6647 6.86 0.191113 -0.600409 -0.54325 -0.0195814
479 2 8.4 15.8947 6.18 0.180759 0.29954 0.121753 0.376325
480 2 4.64 14.8147 12.16 0.183435 0.77401 -0.148315 -0.517202
481 2 0.74 24.1347 3.86 0.193332 1.24461 0.486255 -0.165084
482 2 1.1 17.7447 9.72 0.198266 -0.394045 -0.607502 0.476833
483 2 7.54 21.5547 0.83 0.192117 -0.05567 -0.517783 -0.239858
484 2 11.36 18.6447 11.9 0.192143 -0.19415 -0.0569231 0.0439423
485 2 5.85 14.6547 7.53 0.183621 0.497814 1.05771 0.32171
486 2 8.81 14.4547 9.89 0.182685 0.0117965 -0.0969088 -0.0594985
487 2 2.17 14.8747 7.46 0.202487 -1.14914 -0.170399 -0.334923
488 2 10.1 14.9747 6.55 0.181258 0.112967 -0.135625 -0.230582
489 2 9.07 16.7347 10.91 0.184906 -0.265509 -0.50453 0.000996521
490 2 0.64 20.5747 1.45 0.199679 0.50937 0.674763 -0.308537
491 2 11.12 16.6447 8.14 0.202259 -0.183432 0.40313 0.312262
492 2 11.03 24.4747 0.58 0.195342 0.754059 1.17489 0.0467403
493 2 6.83 14.2847 12.19 0.187672 -0.296881 0.227228 0.205503
494 2 9.13 22.8947 7.25 0.185571 -0.160216 0.106209 -0.443082
495 2 1.76 24.8847 6.8 0.185591 -1.18374 1.35732 -0.0950324
496 2 7.37 24.3247 5.08 0.175798 0.63718 -0.474283 -0.169072
497 2 5.59 20.7347 7.44 0.218994 0.058054 -0.600327 -0.18229
498 2 8.14 24.5647 10.86 0.195424 -0.210885 -1.20668 0.445469
499 2 5.48 12.5047 6.32 0.18894 0.122013 0.408558 -0.084232
500 2 0.99 24.4347 0.41 0.187845 0.420681 0.0199712 0.49879
501 2 4.54 23.3947 5.79 0.183359 -0.0166756 0.130499 0.932406
502 2 10.94 18.7347 1.65 0.201455 -0.0271512 0.593447 -0.475445
503 2 2.52 22.9947 9.76 0.218255 1.17313 -0.879273 -1.41997
504 2 4.74 14.8547 2.42 0.184875 0.756471 -0.55082 1.19337
505 2 8.84 20.7147 11.56 0.185769 0.648335 0.253483 -0.371372
506 2 10.89 18.5047 9.58 0.177024 -0.149984 -0.450762 -1.36993
507 2 2.15 18.4347 11.18 0.183133 0.19818 0.15332 -0.208364
508 2 0.49 21.5047 9.13 0.170817 -0.195471 -0.175701 0.133141
509 2 8.69 24.7847 8.15 0.197811 0.86621 0.118051 -0.768175
510 2 1.76 13.8847 4.07 0.192692 -0.221692 -1.01335 -0.531419
511 2 10.05 16.8847 4.1 0.192316 -0.125975 -0.745344 -0.0156366
512 2 1.44 20.9347 7.32 0.197896 -0.576741 0.96713 -0.266636
513 2 12.25 15.7647 1.68 0.205745 -0.637711 -0.79001 0.707793
514 2 6.27 18.6647 1.56 0.19505 -0.288682 -0.18998 -0.310422
515 2 11.5 20.2947 3.14 0.211302 -0.832445 0.597927 0.813036
516 2 2.96 15.8847 4.61 0.180348 -0.533153 -0.0678886 0.0315835
517 2 5.04 23.6147 11.3 0.203951 0.127395 -0.381053 -0.585063
518 2 7.6 24.8347 3.03 0.186688 0.821777 -0.72864 2.61784
519 2 5.94 22.1247 9.37 0.201526 -0.668936 -0.412485 0.824157
520 2 4.93 23.9047 0.96 0.192241 -0.183063 0.0484393 -0.061247
521 2 8.92 24.1247 1.69 0.18221 -0.842521 1.45769 1.60204
522 2 12.07 13.8047 9.54 0.171108 -0.388882 0.418149 1.32795
523 2 4.17 19.7247 11.8 0.187175 -1.2645 -0.132503 0.621877
524 2 2.67 15.5347 1.05 0.196792 0.335557 0.328199 0.0513114
525 2 11.89 23.0347 5.56 0.212694 0.132245 -0.756153 2.53354
526 2 4.27 19.6747 2.16 0.187745 0.0819586 0.043724 -0.0145507
527 2 10.8 21.6647 10.18 0.189919 -0.381735 -0.312457 0.000712115
528 2 10.68 18.6447 5.44 0.199547 0.402554 -0.469565 -0.0890507
529 2 1.51 17.3447 0.53 0.18783 -0.395808 -0.206711 0.454042
530 2 1.94 17.8047 4.61 0.202922 1.01916 -0.676964 -0.246076
531 2 10.02 22.0847 2.47 0.193895 -0.0946652 -0.934625 1.59326
532 2 8.41 18.8747 11.04 0.181307 0.148156 0.822084 0.80343
533 2 8.58 16.7347 2.01 0.171346 -0.324568 0.68786 0.564207
534 2 3.12 16.7247 8.41 0.186041 -0.390219 -0.00352265 0.188237
535 2 5.12 17.9847 6.6 0.200549 0.113951 0.0927025 0.568106
536 2 3.97 22.0247 3.89 0.200319 -0.122317 0.40455 -0.3633
537 2 6.17 16.0747 3.9 0.180499 0.0639783 0.428601 0.0335376
538 2 11.4 15.3647 10.99 0.186121 0.0360136 -0.322504 0.130681
539 2 5.96 20.4647 4.26 0.206263 1.14918 0.802718 -0.0191826
540 2 6.81 18.3447 9.83 0.201106 2.05205 -0.296831 0.216441
541 2 1.83 19.0347 6.16 0.187749 -0.772057 -0.352089 -1.05866
542 2 10.19 20.8047 6.88 0.185475 -0.393789 -0.00301704 -0.0332406
543 2 8.74 17.1147 7.12 0.196503 -0.74439 -0.329143 -0.441247
544 2 4.84 13.5247 11.38 0.193742 0.366904 -0.11431 0.0286746
545 2 2.38 24.1547 3.7 0.187953 -1.23536 0.033746 0.0339415
546 2 2.02 18.5447 8.92 0.193418 0.561643 -0.413323 0.789855
547 2 6.05 20.9247 0.61 0.185433 1.45641 0.977447 0.978234
548 2 12.12 19.4947 10.81 0.183183 0.12493 0.275266 0.110944
549 2 6.81 15.9047 7.31 0.173813 -1.21256 -0.276896 1.47212
550 2 7.52 14.4347 9.1 0.171167 0.337081 -0.725393 0.216955
551 2 1.25 14.7047 6.18 0.198333 -0.100618 0.233885 -1.44318
552 2 9.31 13.6347 6.35 0.177467 0.392011 1.8779 -1.00921
553 2 8.84 15.3447 11.69 0.189554 0.0720537 0.18275 -0.115952
554 2 1.39 21.8847 0.85 0.203751 -0.146576 0.597055 0.00257729
555 2 12.13 15.6647 7.5 0.198004 2.70528 -1.0304 0.0528927
556 2 11.38 13.3947 1.34 0.189016 1.08992 -0.904656 -1.35612
557 2 7.43 14.2647 1.24 0.192864 0.551762 -0.285859 -1.97595
558 2 9.15 21.8747 8.28 0.178034 0.441264 -0.710188 2.23735
559 2 2.97 24.1047 6.88 0.189437 0.458819 -0.880809 0.139718
560 2 7.5 22.8747 4.47 0.181809 0.703656 1.2892 0.431929
561 2 6.69 21.8447 7.47 0.206107 2.2719 -0.0386724 -0.808157
562 2 7.29 23.2147 10.93 0.190336 -0.341822 -0.0505459 -0.227424
563 2 5.45 13.5147 5.12 0.197986 -0.0709622 0.236643 -0.237766
564 2 1.92 24.0147 1.62 0.180733 -0.408999 0.667422 -0.854438
565 2 5.05 22.9947 7.26 0.212011 -0.248151 -0.143959 -0.376984
566 2 9.73 17.9647 1.11 0.183029 -0.544853 -0.0114475 -0.514613
567 2 1.73 24.2947 9.82 0.204137 -0.0844841 -0.535836 0.289316
568 2 6.02 14.0147 2.67 0.172569 0.700388 -0.752358 -0.238798
569 2 9.34 19.6447 0.21 0.198756 -0.392313 0.548774 -0.176825
570 2 10.71 19.0047 7.97 0.182266 -0.323127 -1.06155 1.28723
571 2 1.86 19.4747 12.37 0.189127 0.480681 -0.368946 -0.146712
572 2 1.08 21.6047 10.59 0.184944 -2.28757 -0.741721 -1.18023
573 2 10.19 24.8347 8.15 0.190645 0.843607 0.202299 0.0267736
574 2 0.92 15.0047 3.28 0.175967 0.878411 -1.05619 2.45227
575 2 9.34 15.4547 4.17 0.202541 0.483853 0.40985 -0.157717
576 2 1.11 22.5347 7.21 0.213346 0.786962 0.737241 -0.31221
577 1 24.2747 15.0047 2.18 -0.418491 0.276287 0.657274 -0.200477
578 1 17.8047 18.4447 1.81 -0.356019 0.340907 0.424421 -0.894533
579 1 24.6147 19.7847 2.71 -0.375672 0.108636 -0.210977 -1.85835
580 1 15.8247 16.7247 4.84 -0.401225 0.921436 -0.302121 -0.574783
581 1 16.9847 24.1747 11.9 -0.352543 1.21089 0.715041 0.323221
582 1 19.7847 12.6247 2.18 -0.375671 -0.527862 1.20551 -1.95304
583 1 18.1747 22.3447 10.31 -0.425659 0.260737 0.0438261 0.365961
584 1 17.7647 23.6347 1.83 -0.352291 -0.145264 -0.360975 0.00942216
585 1 21.8347 23.5847 1.1 -0.384824 0.872345 -1.54212 -0.918579
586 1 24.5047 13.0847 8.92 -0.432942 1.38584 0.308602 -1.86892
587 1 17.4547 20.1647 11.74 -0.33121 1.05765 -0.0925047 -0.578504
588 1 16.0847 15.6347 1.08 -0.329397 0.449043 1.35174 0.0296375
589 1 24.3247 23.3447 4.7 -0.392605 0.205204 1.05597 -2.45394
590 1 16.3247 20.4947 2.51 -0.464723 -0.268843 0.355988 0.230441
591 1 22.2647 21.6047 10.18 -0.365583 0.33909 1.66955 0.487142
592 1 23.4447 17.7547 5.17 -0.319962 0.138437 0.0561207 1.9146
593 1 13.4147 16.5647 0.84 -0.355457 0.745184 0.775296 -0.737696
594 1 13.6847 18.4347 4.76 -0.374759 -0.193329 0.928652 -0.354898
595 1 22.5447 21.5347 3.32 -0.354105 0.910857 0.645118 -2.49249
596 1 20.8347 18.1647 10.39 -0.373467 0.806816 -0.606246 -1.83738
597 1 20.5047 17.1647 1.3 -0.36779 0.704109 -2.90775 -0.607344
598 1 15.6747 15.7847 8.26 -0.401808 2.13811 -0.397577 -0.15747
599 1 17.4647 18.6547 7.29 -0.410388 -0.430388 0.366373 -0.264902
600 1 16.3847 22.9947 3.95 -0.402417 0.433453 0.317496 -0.0584584
601 1 18.6947 17.0047 4.21 -0.380616 -0.393408 -0.784996 -0.268439
602 1 24.6247 14.7947 11.11 -0.382164 -0.847416 -0.742874 1.12306
603 1 19.2047 21.0147 4.07 -0.403468 -1.14817 -0.761872 -0.553756
604 1 18.3147 18.2847 9.79 -0.349097 -2.30359 0.637168 -0.27296
605 1 14.6247 19.3547 6.99 -0.400385 -0.465997 0.744014 1.54717
606 1 23.3347 20.1347 6.78 -0.350545 0.885518 0.570844 0.0353086
607 1 20.4747 16.7247 6.57 -0.327248 0.482362 0.0230466 -0.0798924
608 1 17.7347 14.3647 11.56 -0.42046 -1.1667 0.352031 0.519723
609 1 13.9747 24.6047 3.45 -0.410573 0.41125 -0.955772 0.467826
610 1 14.4847 17.9347 9.71 -0.307416 -0.567498 1.07233 -2.10707
611 1 19.1047 21.4947 1.21 -0.337037 -1.61839 -1.07734 -0.670204
612 1 24.1947 18.6247 11.01 -0.375509 0.109193 0.0673317 -0.490551
613 1 18.5547 15.5147 7.96 -0.386894 0.529721 -0.930103 -1.626
614 1 20.6647 13.8247 9.43 -0.395923 -0.580844 0.677681 -0.139472
615 1 13.7547 14.4647 7.09 -0.381656 1.03094 0.0207636 1.57356
616 1 21.9247 14.5547 5.92 -0.386544 -0.466561 -1.80298 1.20748
617 1 21.7747 15.7847 10.97 -0.415653 0.367234 -0.157062 0.177864
618 1 13.7547 20.9347 0.81 -0.391659 -0.324867 -1.14427 0.312425
619 1 23.6947 15.9247 7.51 -0.362952 -2.51329 0.88356 -0.600328
620 1 24.1447 12.7747 0.6 -0.377211 -1.74595 -0.0720915 1.00755
621 1 20.0747 14.4847 0.28 -0.388924 0.179884 0.446096 1.55237
622 1 21.3047 21.9647 7.4 -0.38758 -0.34246 0.412121 -1.61066
623 1 14.4547 23.9847 6.89 -0.409734 0.352691 -0.503183 0.166526
624 1 20.4647 23.7147 4.66 -0.386294 -1.67357 -0.912981 -0.155678
625 1 18.2647 21.6247 7.71 -0.322041 -1.62591 0.149799 0.939771
626 1 20.5547 23.6347 11.22 -0.344452 0.363574 1.24913 -0.544015
627 1 18.3847 13.2847 5.91 -0.430297 0.34538 0.0080383 0.132109
628 1 14.3247 24.1047 0.64 -0.447611 -0.0496776 -0.645404 0.598339
629 1 17.1047 23.7247 6.73 -0.350743 -0.301448 -0.466411 -1.15937
630 1 22.7647 18.7047 0.89 -0.326364 0.99667 -0.777104 1.09355
631 1 14.4547 23.5147 10.33 -0.382521 -0.874407 1.41953 0.876552
632 1 17.8047 14.5047 3.14 -0.366243 -1.58904 1.40304 -0.800886
633 1 21.0047 20.0347 12.17 -0.416319 -0.455262 -0.0905848 0.376144
634 1 22.9547 18.2547 8.66 -0.394248 0.64132 1.45688 0.242615
635 1 14.8147 18.6747 12.1 -0.416527 -0.176611 0.565296 1.08136
636 1 12.7447 21.2147 10.05 -0.378106 1.9013 0.678155 1.1904
637 1 21.9147 24.5747 7.57 -0.329558 -1.4043 0.150385 0.698072
638 1 13.8547 14.7647 4.17 -0.409847 -0.897506 2.03048 -1.6184
639 1 22.1347 16.1347 3.56 -0.385426 -0.312401 -0.0178153 0.00842462
640 1 13.1947 21.6647 7.39 -0.389396 -0.0507672 -1.95375 0.371101
641 2 23.5347 15.3147 2.74 0.191006 0.242641 0.249606 -0.242653
642 2 17.9547 17.9547 2.6 0.193885 0.173014 -0.778966 1.25701
643 2 12.6847 19.2447 3.29 0.202655 0.689765 -0.383473 1.08408
644 2 16.7247 16.6347 4.46 0.179041 -0.617833 0.498773 0.550843
645 2 16.0747 24.0047 11.76 0.196223 -1.9257 -0.273379 -0.12946
646 2 18.9747 24.5147 1.99 0.175621 -0.00358423 -0.0767612 0.0486989
647 2 17.8147 21.5847 10.85 0.192166 0.344546 0.250852 -0.896852
648 2 18.1847 22.7547 1.64 0.184005 0.044165 0.251749 0.0828112
649 2 21.1547 23.5147 0.41 0.17763 0.422533 -0.0590865 -0.677242
650 2 12.7147 13.4847 8.27 0.17344 -1.12378 -0.989647 0.443642
651 2 17.9047 19.5247 11.15 0.180688 0.237323 0.266769 0.0568834
652 2 16.2847 16.6147 1.06 0.193774 -0.43098 -1.59746 0.0114859
653 2 23.9947 22.6347 4.15 0.193318 -0.344372 -0.238337 -0.197758
654 2 15.4447 20.6147 2.14 0.185159 0.135003 -0.0815665 -0.0868554
655 2 21.9747 22.4847 10.56 0.183594 0.038192 -1.1177 -0.571155
656 2 23.6247 17.2847 6.05 0.169879 -0.438845 0.441056 -1.51325
657 2 13.1247 16.2047 12.44 0.177372 -0.291535 -0.537382 -0.24226
658 2 12.8747 17.9547 4.88 0.191064 -0.911662 -0.44505 0.172005
659 2 21.9547 21.9247 3.94 0.198768 -0.777874 0.453477 0.70955
660 2 21.5247 18.3347 9.68 0.18363 -0.87355 -0.131889 0.694478
661 2 20.3647 16.2747 0.8 0.157297 -0.370784 1.9901 0.389995
662 2 16.6747 15.6647 8.21 0.191194 -1.42391 0.140274 -0.00568322
663 2 17.7147 18.3447 8.19 0.186371 0.231096 -0.0760303 -0.406441
664 2 16.8847 23.3447 3.14 0.186774 -0.36992 -0.593145 0.691891
665 2 19.3747 17.0047 4.89 0.1968 0.140634 0.23838 0.137514
666 2 24.3247 14.0547 11.75 0.177225 0.613589 1.15347 -0.98008
667 2 19.2347 20.9847 3.09 0.175367 0.0995793 0.218346 0.449166
668 2 18.0647 17.4347 10.13 0.221124 0.00679955 -0.644038 0.23631
669 2 15.5347 19.1047 6.98 0.191091 1.43385 -0.115633 0.191252
670 2 24.1747 20.6647 6.86 0.191114 -0.60043 -0.543267 -0.0195835
671 2 20.8447 15.8947 6.18 0.180758 0.299553 0.12174 0.376321
672 2 17.0847 14.8147 12.16 0.183436 0.774002 -0.148315 -0.517197
673 2 13.1847 24.1347 3.86 0.193332 1.24461 0.486254 -0.165083
674 2 13.5447 17.7447 9.72 0.198266 -0.394016 -0.607496 0.476834
675 2 19.9847 21.5547 0.83 0.192117 -0.0556289 -0.517781 -0.239877
676 2 23.8047 18.6447 11.9 0.192143 -0.194158 -0.0569254 0.0439589
677 2 18.2947 14.6547 7.53 0.183621 0.497814 1.05771 0.321711
678 2 21.2547 14.4547 9.89 0.182684 0.0118001 -0.0969129 -0.0594971
679 2 14.6147 14.8747 7.46 0.202487 -1.14916 -0.170404 -0.334926
680 2 22.5447 14.9747 6.55 0.181258 0.112967 -0.135628 -0.230581
681 2 21.5147 16.7347 10.91 0.184907 -0.265507 -0.504535 0.000998489
682 2 13.0847 20.5747 1.45 0.199679 0.509372 0.674764 -0.308538
683 2 23.5647 16.6447 8.14 0.20226 -0.183426 0.403122 0.312258
684 2 23.4747 24.4747 0.58 0.195342 0.754025 1.17486 0.0467397
685 2 19.2747 14.2847 12.19 0.187672 -0.296904 0.22722 0.205494
686 2 21.5747 22.8947 7.25 0.185572 -0.160208 0.106225 -0.443083
687 2 14.2047 24.8847 6.8 0.185591 -1.18374 1.35732 -0.0950323
688 2 19.8147 24.3247 5.08 0.175797 0.637197 -0.474295 -0.169082
689 2 18.0347 20.7347 7.44 0.218995 0.0580504 -0.600333 -0.182292
690 2 20.5847 24.5647 10.86 0.195424 -0.210876 -1.20668 0.445471
691 2 17.9247 12.5047 6.32 0.188941 0.122024 0.408565 -0.0842327
692 2 13.4347 24.4347 0.41 0.187844 0.420692 0.0199663 0.498794
693 2 16.9847 23.3947 5.79 0.183359 -0.0166727 0.1305 0.932409
694 2 23.3847 18.7347 1.65 0.201455 -0.0271702 0.593444 -0.475464
695 2 14.9647 22.9947 9.76 0.218255 1.17314 -0.879287 -1.41998
696 2 17.1847 14.8547 2.42 0.184875 0.756479 -0.550825 1.19338
697 2 21.2847 20.7147 11.56 0.185769 0.648328 0.253474 -0.371363
698 2 23.3347 18.5047 9.58 0.177024 -0.149974 -0.450759 -1.36992
699 2 14.5947 18.4347 11.18 0.183133 0.198182 0.15332 -0.20836
700 2 12.9347 21.5047 9.13 0.170817 -0.195469 -0.175699 0.133137
701 2 21.1347 24.7847 8.15 0.197812 0.86616 0.118064 -0.768143
702 2 14.2047 13.8847 4.07 0.192692 -0.221696 -1.01334 -0.531418
703 2 22.4947 16.8847 4.1 0.192316 -0.125962 -0.745326 -0.0156254
704 2 13.8847 20.9347 7.32 0.197896 -0.576733 0.967125 -0.266638
705 2 24.6947 15.7647 1.68 0.205744 -0.637712 -0.79001 0.707794
706 2 18.7147 18.6647 1.56 0.19505 -0.288682 -0.189982 -0.310421
707 2 23.9447 20.2947 3.14 0.211302 -0.832444 0.597926 0.813035
708 2 15.4047 15.8847 4.61 0.180348 -0.533153 -0.0678887 0.031583
709 2 17.4847 23.6147 11.3 0.203952 0.127393 -0.381051 -0.585062
710 2 20.0447 24.8347 3.03 0.186688 0.821774 -0.728639 2.61783
711 2 18.3847 22.1247 9.37 0.201527 -0.66894 -0.412484 0.824165
712 2 17.3747 23.9047 0.96 0.192241 -0.183074 0.0484441 -0.0612583
713 2 21.3647 24.1247 1.69 0.18221 -0.842533 1.45771 1.60206
714 2 24.5147 13.8047 9.54 0.171108 -0.388884 0.41815 1.32796
715 2 16.6147 19.7247 11.8 0.187175 -1.26451 -0.132501 0.62188
716 2 15.1147 15.5347 1.05 0.196793 0.335524 0.328198 0.0513103
717 2 24.3347 23.0347 5.56 0.212694 0.132245 -0.756153 2.53353
718 2 16.7147 19.6747 2.16 0.187745 0.081944 0.0437466 -0.0145426
719 2 23.2447 21.6647 10.18 0.189919 -0.381691 -0.31246 0.000710542
720 2 23.1247 18.6447 5.44 0.199547 0.402555 -0.469568 -0.0890511
721 2 13.9547 17.3447 0.53 0.18783 -0.39582 -0.206724 0.454045
722 2 14.3847 17.8047 4.61 0.202921 1.01916 -0.676966 -0.246077
723 2 22.4647 22.0847 2.47 0.193895 -0.0946658 -0.934624 1.59325
724 2 20.8547 18.8747 11.04 0.181307 0.148154 0.822085 0.803433
725 2 21.0247 16.7347 2.01 0.171346 -0.324577 0.687869 0.564194
726 2 15.5647 16.7247 8.41 0.186041 -0.390223 -0.00351824 0.188238
727 2 17.5647 17.9847 6.6 0.200549 0.113953 0.0926983 0.568102
728 2 16.4147 22.0247 3.89 0.200318 -0.122315 0.404548 -0.363303
729 2 18.6147 16.0747 3.9 0.1805 0.0639792 0.4286 0.0335368
730 2 23.8447 15.3647 10.99 0.186121 0.0360155 -0.322503 0.13068
731 2 18.4047 20.4647 4.26 0.206263 1.1492 0.802735 -0.0191861
732 2 19.2547 18.3447 9.83 0.201106 2.05203 -0.296833 0.216443
733 2 14.2747 19.0347 6.16 0.187749 -0.772061 -0.352091 -1.05867
734 2 22.6347 20.8047 6.88 0.185475 -0.393833 -0.00298078 -0.033236
735 2 21.1847 17.1147 7.12 0.196504 -0.744366 -0.329136 -0.441233
736 2 17.2847 13.5247 11.38 0.193743 0.366891 -0.114327 0.0286723
737 2 14.8247 24.1547 3.7 0.187953 -1.23537 0.0337493 0.0339392
738 2 14.4647 18.5447 8.92 0.193418 0.561645 -0.413322 0.789855
739 2 18.4947 20.9247 0.61 0.185433 1.45642 0.977452 0.978239
740 2 24.5647 19.4947 10.81 0.183183 0.12494 0.275281 0.110938
741 2 19.2547 15.9047 7.31 0.173814 -1.21255 -0.276891 1.47211
742 2 19.9647 14.4347 9.1 0.171167 0.33705 -0.725372 0.216941
743 2 13.6947 14.7047 6.18 0.198333 -0.10062 0.233886 -1.44318
744 2 21.7547 13.6347 6.35 0.177467 0.392017 1.8779 -1.00921
745 2 21.2847 15.3447 11.69 0.189554 0.0720531 0.182749 -0.115952
746 2 13.8347 21.8847 0.85 0.203751 -0.146576 0.597054 0.00257675
747 2 24.5747 15.6647 7.5 0.198004 2.70534 -1.03042 0.0528949
748 2 23.8247 13.3947 1.34 0.189016 1.08992 -0.904656 -1.35612
749 2 19.8747 14.2647 1.24 0.192864 0.551754 -0.285862 -1.97594
750 2 21.5947 21.8747 8.28 0.178035 0.441272 -0.710188 2.23737
751 2 15.4147 24.1047 6.88 0.189438 0.458859 -0.880805 0.139718
752 2 19.9447 22.8747 4.47 0.181809 0.703658 1.2892 0.431928
753 2 19.1347 21.8447 7.47 0.206108 2.27185 -0.0386825 -0.808142
754 2 19.7347 23.2147 10.93 0.190335 -0.341755 -0.0505186 -0.227398
755 2 17.8947 13.5147 5.12 0.197987 -0.0709391 0.236636 -0.237736
756 2 14.3647 24.0147 1.62 0.180733 -0.408999 0.667422 -0.854439
757 2 17.4947 22.9947 7.26 0.212011 -0.248145 -0.143966 -0.376979
758 2 22.1747 17.9647 1.11 0.183029 -0.54485 -0.0114465 -0.514611
759 2 14.1747 24.2947 9.82 0.204137 -0.0844817 -0.535843 0.289319
760 2 18.4647 14.0147 2.67 0.172569 0.70039 -0.752361 -0.2388
761 2 21.7847 19.6447 0.21 0.198756 -0.392335 0.548779 -0.176834
762 2 23.1547 19.0047 7.97 0.182266 -0.323121 -1.06154 1.28723
763 2 14.3047 19.4747 12.37 0.189127 0.480685 -0.368951 -0.146713
764 2 13.5247 21.6047 10.59 0.184944 -2.28757 -0.741718 -1.18023
765 2 22.6347 24.8347 8.15 0.190646 0.843554 0.20228 0.0267288
766 2 13.3647 15.0047 3.28 0.175967 0.878409 -1.05619 2.45227
767 2 21.7847 15.4547 4.17 0.202541 0.48386 0.409859 -0.157727
768 2 13.5547 22.5347 7.21 0.213347 0.786966 0.737247 -0.312212
769 1 11.83 27.4494 2.18 -0.418491 0.276299 0.65727 -0.200484
770 1 5.36 30.8894 1.81 -0.356019 0.340912 0.424413 -0.894527
771 1 12.17 32.2294 2.71 -0.375672 0.108677 -0.211007 -1.85837
772 1 3.38 29.1694 4.84 -0.401225 0.921433 -0.302084 -0.574766
773 1 4.54 36.6194 11.9 -0.352542 1.21094 0.715011 0.323196
774 1 7.34 25.0694 2.18 -0.375672 -0.527876 1.20548 -1.95302
775 1 5.73 34.7894 10.31 -0.42566 0.260754 0.0438925 0.365955
776 1 5.32 36.0794 1.83 -0.352291 -0.14534 -0.360839 0.00941756
777 1 9.39 36.0294 1.1 -0.384824 0.872333 -1.5421 -0.918568
778 1 12.06 25.5294 8.92 -0.432942 1.38582 0.308559 -1.86892
779 1 5.01 32.6094 11.74 -0.331212 1.0576 -0.0926105 -0.578542
780 1 3.64 28.0794 1.08 -0.329396 0.44901 1.35177 0.0296356
781 1 11.88 35.7894 4.7 -0.392605 0.205209 1.05599 -2.45398
782 1 3.88 32.9394 2.51 -0.464721 -0.268887 0.356011 0.230435
783 1 9.82 34.0494 10.18 -0.365582 0.33912 1.66962 0.487166
784 1 11 30.1994 5.17 -0.319963 0.138436 0.0561165 1.9146
785 1 0.97 29.0094 0.84 -0.355457 0.745171 0.775283 -0.737691
786 1 1.24 30.8794 4.76 -0.374759 -0.193259 0.92861 -0.354911
787 1 10.1 33.9794 3.32 -0.354105 0.910858 0.645118 -2.49249
788 1 8.39 30.6094 10.39 -0.373468 0.806803 -0.606248 -1.83736
789 1 8.06 29.6094 1.3 -0.36779 0.704094 -2.90774 -0.60736
790 1 3.23 28.2294 8.26 -0.401808 2.13811 -0.397667 -0.157484
791 1 5.02 31.0994 7.29 -0.410388 -0.430387 0.366366 -0.264905
792 1 3.94 35.4394 3.95 -0.402417 0.433451 0.31739 -0.0584581
793 1 6.25 29.4494 4.21 -0.380616 -0.393422 -0.784994 -0.268454
794 1 12.18 27.2394 11.11 -0.382165 -0.8474 -0.742915 1.12308
795 1 6.76 33.4594 4.07 -0.403469 -1.14814 -0.761849 -0.553757
796 1 5.87 30.7294 9.79 -0.349097 -2.30362 0.637169 -0.272957
797 1 2.18 31.7994 6.99 -0.400384 -0.466056 0.744036 1.54717
798 1 10.89 32.5794 6.78 -0.350544 0.88547 0.570969 0.0353266
799 1 8.03 29.1694 6.57 -0.327248 0.482407 0.0230915 -0.079849
800 1 5.29 26.8094 11.56 -0.42046 -1.16671 0.352005 0.51972
801 1 1.53 37.0494 3.45 -0.410573 0.41122 -0.955798 0.467835
802 1 2.04 30.3794 9.71 -0.307415 -0.567466 1.07233 -2.10707
803 1 6.66 33.9394 1.21 -0.337037 -1.61833 -1.07733 -0.670219
804 1 11.75 31.0694 11.01 -0.375509 0.109196 0.067347 -0.490539
805 1 6.11 27.9594 7.96 -0.386894 0.52972 -0.930133 -1.62601
806 1 8.22 26.2694 9.43 -0.395923 -0.580875 0.677741 -0.13948
807 1 1.31 26.9094 7.09 -0.381655 1.03092 0.0207511 1.57356
808 1 9.48 26.9994 5.92 -0.386544 -0.466553 -1.80298 1.20749
809 1 9.33 28.2294 10.97 -0.415652 0.367237 -0.157064 0.177865
810 1 1.31 33.3794 0.81 -0.391658 -0.324844 -1.14424 0.312403
811 1 11.25 28.3694 7.51 -0.362952 -2.51323 0.88354 -0.600328
812 1 11.7 25.2194 0.6 -0.377211 -1.74597 -0.0721178 1.00753
813 1 7.63 26.9294 0.28 -0.388924 0.179861 0.446096 1.55236
814 1 8.86 34.4094 7.4 -0.387579 -0.342419 0.412211 -1.61065
815 1 2.01 36.4294 6.89 -0.409736 0.352785 -0.50339 0.166547
816 1 8.02 36.1594 4.66 -0.386294 -1.67358 -0.912961 -0.155669
817 1 5.82 34.0694 7.71 -0.322041 -1.62596 0.149854 0.939815
818 1 8.11 36.0794 11.22 -0.344451 0.363688 1.24925 -0.544003
819 1 5.94 25.7294 5.91 -0.430298 0.345414 0.00804462 0.132135
820 1 1.88 36.5494 0.64 -0.447611 -0.0496412 -0.64542 0.598348
821 1 4.66 36.1694 6.73 -0.350744 -0.301466 -0.466345 -1.15934
822 1 10.32 31.1494 0.89 -0.326365 0.99666 -0.777105 1.09354
823 1 2.01 35.9594 10.33 -0.382521 -0.874371 1.41945 0.876569
824 1 5.36 26.9494 3.14 -0.366244 -1.58904 1.40303 -0.80088
825 1 8.56 32.4794 12.17 -0.416319 -0.455303 -0.0905729 0.376131
826 1 10.51 30.6994 8.66 -0.394248 0.641332 1.45689 0.242623
827 1 2.37 31.1194 12.1 -0.416527 -0.176572 0.565238 1.08134
828 1 0.3 33.6594 10.05 -0.378106 1.90132 0.678171 1.19037
829 1 9.47 37.0194 7.57 -0.329557 -1.40442 0.150347 0.698032
830 1 1.41 27.2094 4.17 -0.409847 -0.897493 2.03044 -1.6184
831 1 9.69 28.5794 3.56 -0.385426 -0.312358 -0.0177407 0.00840328
832 1 0.75 34.1094 7.39 -0.389396 -0.0507369 -1.95391 0.371112
833 2 11.09 27.7594 2.74 0.191007 0.242631 0.249612 -0.242647
834 2 5.51 30.3994 2.6 0.193885 0.17301 -0.778963 1.257
835 2 0.24 31.6894 3.29 0.202655 0.689768 -0.383477 1.08408
836 2 4.28 29.0794 4.46 0.17904 -0.617816 0.498772 0.550836
837 2 3.63 36.4494 11.76 0.196223 -1.92572 -0.273383 -0.129464
838 2 6.53 36.9594 1.99 0.175621 -0.00359538 -0.0767791 0.0487007
839 2 5.37 34.0294 10.85 0.192167 0.344523 0.250801 -0.896827
840 2 5.74 35.1994 1.64 0.184006 0.0442133 0.251632 0.0827863
841 2 8.71 35.9594 0.41 0.177629 0.422533 -0.0590903 -0.67724
842 2 0.27 25.9294 8.27 0.17344 -1.12379 -0.989646 0.44365
843 2 5.46 31.9694 11.15 0.180688 0.237297 0.266819 0.0569211
844 2 3.84 29.0594 1.06 0.193773 -0.430978 -1.59749 0.0114863
845 2 11.55 35.0794 4.15 0.193318 -0.344375 -0.23834 -0.197753
846 2 3 33.0594 2.14 0.185159 0.135027 -0.0815626 -0.0868409
847 2 9.53 34.9294 10.56 0.183595 0.0382069 -1.11776 -0.571178
848 2 11.18 29.7294 6.05 0.169879 -0.438845 0.441055 -1.51325
849 2 0.68 28.6494 12.44 0.177372 -0.291535 -0.537384 -0.242259
850 2 0.43 30.3994 4.88 0.191063 -0.91168 -0.445057 0.172008
851 2 9.51 34.3694 3.94 0.198767 -0.777874 0.453477 0.709549
852 2 9.08 30.7794 9.68 0.183631 -0.873535 -0.131885 0.694467
853 2 7.92 28.7194 0.8 0.157297 -0.370779 1.9901 0.389997
854 2 4.23 28.1094 8.21 0.191194 -1.42391 0.140276 -0.00568359
855 2 5.27 30.7894 8.19 0.18637 0.231097 -0.0760281 -0.406442
856 2 4.44 35.7894 3.14 0.186774 -0.369912 -0.593129 0.69188
857 2 6.93 29.4494 4.89 0.1968 0.140648 0.238379 0.137527
858 2 11.88 26.4994 11.75 0.177225 0.613592 1.1535 -0.980098
859 2 6.79 33.4294 3.09 0.175367 0.099572 0.218339 0.449167
860 2 5.62 29.8794 10.13 0.221123 0.00679904 -0.644038 0.23631
861 2 3.09 31.5494 6.98 0.191091 1.4339 -0.115647 0.191251
862 2 11.73 33.1094 6.86 0.191113 -0.60046 -0.543303 -0.0195881
863 2 8.4 28.3394 6.18 0.180758 0.299557 0.121724 0.376314
864 2 4.64 27.2594 12.16 0.183436 0.774001 -0.148304 -0.517192
865 2 0.74 36.5794 3.86 0.193331 1.24462 0.486274 -0.165096
866 2 1.1 30.1894 9.72 0.198266 -0.394045 -0.607502 0.476833
867 2 7.54 33.9994 0.83 0.192116 -0.0556717 -0.517785 -0.239858
868 2 11.36 31.0894 11.9 0.192143 -0.194151 -0.0569237 0.0439434
869 2 5.85 27.0994 7.53 0.18362 0.497822 1.05773 0.321723
870 2 8.81 26.8994 9.89 0.182684 0.011783 -0.0969311 -0.0595104
871 2 2.17 27.3194 7.46 0.202488 -1.14914 -0.170398 -0.334923
872 2 10.1 27.4194 6.55 0.181258 0.112965 -0.135627 -0.230583
873 2 9.07 29.1794 10.91 0.184907 -0.265508 -0.504534 0.000997803
874 2 0.64 33.0194 1.45 0.199679 0.509341 0.674728 -0.308511
875 2 11.12 29.0894 8.14 0.202259 -0.183431 0.403126 0.312261
876 2 11.03 36.9194 0.58 0.195342 0.75409 1.17494 0.0467457
877 2 6.83 26.7294 12.19 0.187672 -0.296886 0.227224 0.205501
878 2 9.13 35.3394 7.25 0.185571 -0.160236 0.106137 -0.443068
879 2 1.76 37.3294 6.8 0.185592 -1.18379 1.35752 -0.0950534
880 2 7.37 36.7694 5.08 0.175797 0.637205 -0.474318 -0.169092
881 2 5.59 33.1794 7.44 0.218995 0.0580243 -0.600414 -0.182313
882 2 8.14 37.0094 10.86 0.195424 -0.210884 -1.20674 0.445494
883 2 5.48 24.9494 6.32 0.188941 0.122013 0.408557 -0.0842323
884 2 0.99 36.8794 0.41 0.187845 0.420657 0.019984 0.498782
885 2 4.54 35.8394 5.79 0.183359 -0.0166754 0.130465 0.932374
886 2 10.94 31.1794 1.65 0.201456 -0.027152 0.593444 -0.475448
887 2 2.52 35.4394 9.76 0.218255 1.17313 -0.879277 -1.41996
888 2 4.74 27.2994 2.42 0.184875 0.756469 -0.55082 1.19337
889 2 8.84 33.1594 11.56 0.185769 0.648331 0.253485 -0.371373
890 2 10.89 30.9494 9.58 0.177024 -0.149984 -0.450764 -1.36993
891 2 2.15 30.8794 11.18 0.183133 0.198181 0.153318 -0.208365
892 2 0.49 33.9494 9.13 0.170818 -0.195477 -0.175709 0.133159
893 2 8.69 37.2294 8.15 0.197812 0.866201 0.118063 -0.768166
894 2 1.76 26.3294 4.07 0.192692 -0.22171 -1.01331 -0.531416
895 2 10.05 29.3294 4.1 0.192316 -0.125975 -0.745342 -0.0156431
896 2 1.44 33.3794 7.32 0.197897 -0.576796 0.967201 -0.266633
897 2 12.25 28.2094 1.68 0.205744 -0.637714 -0.79001 0.707796
898 2 6.27 31.1094 1.56 0.195051 -0.288682 -0.18998 -0.310423
899 2 11.5 32.7394 3.14 0.211302 -0.832487 0.597958 0.813061
900 2 2.96 28.3294 4.61 0.180348 -0.53317 -0.0679228 0.0315737
901 2 5.04 36.0594 11.3 0.203951 0.127362 -0.38102 -0.585029
902 2 7.6 37.2794 3.03 0.186689 0.821781 -0.728648 2.61787
903 2 5.94 34.5694 9.37 0.201527 -0.668936 -0.412497 0.824145
904 2 4.93 36.3494 0.96 0.192241 -0.183058 0.0484291 -0.0612332
905 2 8.92 36.5694 1.69 0.18221 -0.842522 1.45769 1.60204
906 2 12.07 26.2494 9.54 0.171109 -0.388879 0.418177 1.32797
907 2 4.17 32.1694 11.8 0.187174 -1.26443 -0.132453 0.621879
908 2 2.67 27.9794 1.05 0.196792 0.335554 0.328195 0.0513114
909 2 11.89 35.4794 5.56 0.212695 0.132244 -0.756168 2.53358
910 2 4.27 32.1194 2.16 0.187744 0.0819632 0.0437248 -0.0145477
911 2 10.8 34.1094 10.18 0.189919 -0.381737 -0.312468 0.000709965
912 2 10.68 31.0894 5.44 0.199547 0.402555 -0.469568 -0.0890524
913 2 1.51 29.7894 0.53 0.18783 -0.395807 -0.206711 0.454042
914 2 1.94 30.2494 4.61 0.202921 1.01911 -0.676916 -0.246065
915 2 10.02 34.5294 2.47 0.193895 -0.0946656 -0.934625 1.59326
916 2 8.41 31.3194 11.04 0.181307 0.148156 0.822082 0.80343
917 2 8.58 29.1794 2.01 0.171346 -0.324567 0.687859 0.564207
918 2 3.12 29.1694 8.41 0.18604 -0.390231 -0.00342741 0.188252
919 2 5.12 30.4294 6.6 0.200549 0.113951 0.0927027 0.568106
920 2 3.97 34.4694 3.89 0.200318 -0.122322 0.404638 -0.363292
921 2 6.17 28.5194 3.9 0.180499 0.0639795 0.4286 0.0335371
922 2 11.4 27.8094 10.99 0.186121 0.0359951 -0.322491 0.130679
923 2 5.96 32.9094 4.26 0.206263 1.14918 0.802718 -0.0191874
924 2 6.81 30.7894 9.83 0.201106 2.05205 -0.296831 0.216441
925 2 1.83 31.4794 6.16 0.187749 -0.772058 -0.352091 -1.05867
926 2 10.19 33.2494 6.88 0.185474 -0.393759 -0.00306392 -0.0332481
927 2 8.74 29.5594 7.12 0.196504 -0.744414 -0.329165 -0.44127
928 2 4.84 25.9694 11.38 0.193742 0.366907 -0.11431 0.0286725
929 2 2.38 36.5994 3.7 0.187953 -1.23536 0.033749 0.0339387
930 2 2.02 30.9894 8.92 0.193418 0.561644 -0.413324 0.789856
931 2 6.05 33.3694 0.61 0.185432 1.45641 0.977447 0.978235
932 2 12.12 31.9394 10.81 0.183183 0.12493 0.275264 0.110944
933 2 6.81 28.3494 7.31 0.173814 -1.21256 -0.27689 1.47212
934 2 7.52 26.8794 9.1 0.171167 0.337096 -0.725412 0.216961
935 2 1.25 27.1494 6.18 0.198333 -0.100618 0.233889 -1.44319
936 2 9.31 26.0794 6.35 0.177467 0.392012 1.87789 -1.00921
937 2 8.84 27.7894 11.69 0.189554 0.0720521 0.182749 -0.115951
938 2 1.39 34.3294 0.85 0.203751 -0.146567 0.597056 0.00257059
939 2 12.13 28.1094 7.5 0.198004 2.70528 -1.0304 0.0528921
940 2 11.38 25.8394 1.34 0.189016 1.08991 -0.904639 -1.35611
941 2 7.43 26.7094 1.24 0.192864 0.55176 -0.285863 -1.97594
942 2 9.15 34.3194 8.28 0.178035 0.441265 -0.710187 2.23735
943 2 2.97 36.5494 6.88 0.189438 0.45882 -0.8808 0.139718
944 2 7.5 35.3194 4.47 0.181808 0.703651 1.2892 0.431932
945 2 6.69 34.2894 7.47 0.206108 2.27193 -0.0386592 -0.808164
946 2 7.29 35.6594 10.93 0.190336 -0.341853 -0.0505663 -0.227432
947 2 5.45 25.9594 5.12 0.197986 -0.0709613 0.236643 -0.237766
948 2 1.92 36.4594 1.62 0.180734 -0.408998 0.667422 -0.854436
949 2 5.05 35.4394 7.26 0.212012 -0.248133 -0.144001 -0.37697
950 2 9.73 30.4094 1.11 0.183029 -0.544854 -0.0114468 -0.514614
951 2 1.73 36.7394 9.82 0.204137 -0.0845087 -0.535773 0.28928
952 2 6.02 26.4594 2.67 0.17257 0.70039 -0.75236 -0.238798
953 2 9.34 32.0894 0.21 0.198757 -0.3923 0.548756 -0.176813
954 2 10.71 31.4494 7.97 0.182266 -0.323125 -1.06154 1.28723
955 2 1.86 31.9194 12.37 0.189127 0.48065 -0.368895 -0.146696
956 2 1.08 34.0494 10.59 0.184944 -2.28757 -0.741721 -1.18022
957 2 10.19 37.2794 8.15 0.190646 0.843628 0.20231 0.0267919
958 2 0.92 27.4494 3.28 0.175966 0.878411 -1.05619 2.45226
959 2 9.34 27.8994 4.17 0.202541 0.483832 0.409806 -0.157687
960 2 1.11 34.9794 7.21 0.213347 0.786998 0.737316 -0.312228
961 1 24.2747 27.4494 2.18 -0.418491 0.276298 0.657268 -0.200485
962 1 17.8047 30.8894 1.81 -0.356018 0.340906 0.424421 -0.894535
963 1 24.6147 32.2294 2.71 -0.375673 0.108675 -0.211007 -1.85837
964 1 15.8247 29.1694 4.84 -0.401225 0.921452 -0.302084 -0.574773
965 1 16.9847 36.6194 11.9 -0.352542 1.21095 0.71501 0.323197
966 1 19.7847 25.0694 2.18 -0.375672 -0.527865 1.20549 -1.95301
967 1 18.1747 34.7894 10.31 -0.425659 0.260754 0.0438895 0.365956
968 1 17.7647 36.0794 1.83 -0.352291 -0.145327 -0.360852 0.0094218
969 1 21.8347 36.0294 1.1 -0.384824 0.872345 -1.54211 -0.918585
970 1 24.5047 25.5294 8.92 -0.432941 1.38583 0.308565 -1.86894
971 1 17.4547 32.6094 11.74 -0.331212 1.05759 -0.0926021 -0.578529
972 1 16.0847 28.0794 1.08 -0.329396 0.449049 1.35178 0.029637
973 1 24.3247 35.7894 4.7 -0.392605 0.205208 1.05599 -2.45398
974 1 16.3247 32.9394 2.51 -0.464721 -0.268837 0.355986 0.230443
975 1 22.2647 34.0494 10.18 -0.365582 0.339086 1.66961 0.487167
976 1 23.4447 30.1994 5.17 -0.319963 0.138435 0.0561163 1.9146
977 1 13.4147 29.0094 0.84 -0.355456 0.745186 0.7753 -0.737696
978 1 13.6847 30.8794 4.76 -0.374759 -0.193279 0.928607 -0.354908
979 1 22.5447 33.9794 3.32 -0.354105 0.910856 0.645118 -2.49249
980 1 20.8347 30.6094 10.39 -0.373467 0.806818 -0.606243 -1.83738
981 1 20.5047 29.6094 1.3 -0.36779 0.704109 -2.90775 -0.607344
982 1 15.6747 28.2294 8.26 -0.401808 2.13812 -0.397669 -0.157483
983 1 17.4647 31.0994 7.29 -0.410388 -0.430389 0.366371 -0.264904
984 1 16.3847 35.4394 3.95 -0.402417 0.433445 0.317393 -0.058453
985 1 18.6947 29.4494 4.21 -0.380616 -0.393408 -0.784995 -0.26844
986 1 24.6247 27.2394 11.11 -0.382165 -0.847408 -0.742926 1.12309
987 1 19.2047 33.4594 4.07 -0.403469 -1.14817 -0.761868 -0.553751
988 1 18.3147 30.7294 9.79 -0.349098 -2.30359 0.637171 -0.272955
989 1 14.6247 31.7994 6.99 -0.400385 -0.466004 0.744024 1.54717
990 1 23.3347 32.5794 6.78 -0.350544 0.885544 0.570948 0.0353236
991 1 20.4747 29.1694 6.57 -0.327248 0.482372 0.0230955 -0.0798619
992 1 17.7347 26.8094 11.56 -0.42046 -1.16669 0.352019 0.519714
993 1 13.9747 37.0494 3.45 -0.410573 0.411228 -0.955802 0.467836
994 1 14.4847 30.3794 9.71 -0.307416 -0.567498 1.07233 -2.10706
995 1 19.1047 33.9394 1.21 -0.337037 -1.61838 -1.07734 -0.670208
996 1 24.1947 31.0694 11.01 -0.375509 0.109194 0.0673327 -0.49055
997 1 18.5547 27.9594 7.96 -0.386894 0.529706 -0.930138 -1.626
998 1 20.6647 26.2694 9.43 -0.395923 -0.580843 0.677722 -0.139465
999 1 13.7547 26.9094 7.09 -0.381656 1.03094 0.0207565 1.57357
1000 1 21.9247 26.9994 5.92 -0.386543 -0.466558 -1.80299 1.20748
1001 1 21.7747 28.2294 10.97 -0.415653 0.367232 -0.157065 0.177866
1002 1 13.7547 33.3794 0.81 -0.391658 -0.324845 -1.14424 0.312405
1003 1 23.6947 28.3694 7.51 -0.362952 -2.51329 0.883559 -0.600327
1004 1 24.1447 25.2194 0.6 -0.37721 -1.74594 -0.0720841 1.00754
1005 1 20.0747 26.9294 0.28 -0.388924 0.179896 0.446105 1.55237
1006 1 21.3047 34.4094 7.4 -0.38758 -0.342437 0.412191 -1.61067
1007 1 14.4547 36.4294 6.89 -0.409735 0.352744 -0.503395 0.166547
1008 1 20.4647 36.1594 4.66 -0.386294 -1.6736 -0.912946 -0.155659
1009 1 18.2647 34.0694 7.71 -0.32204 -1.62591 0.149871 0.939803
1010 1 20.5547 36.0794 11.22 -0.344451 0.363608 1.24921 -0.54403
1011 1 18.3847 25.7294 5.91 -0.430298 0.345382 0.00803891 0.132108
1012 1 14.3247 36.5494 0.64 -0.447611 -0.0496554 -0.645415 0.598345
1013 1 17.1047 36.1694 6.73 -0.350744 -0.301476 -0.466333 -1.15935
1014 1 22.7647 31.1494 0.89 -0.326365 0.996671 -0.777102 1.09355
1015 1 14.4547 35.9594 10.33 -0.382521 -0.874386 1.41947 0.876583
1016 1 17.8047 26.9494 3.14 -0.366244 -1.58904 1.40304 -0.800885
1017 1 21.0047 32.4794 12.17 -0.416318 -0.455273 -0.0905715 0.376134
1018 1 22.9547 30.6994 8.66 -0.394248 0.64132 1.45688 0.24262
1019 1 14.8147 31.1194 12.1 -0.416526 -0.176579 0.565246 1.08134
1020 1 12.7447 33.6594 10.05 -0.378106 1.90131 0.678168 1.19037
1021 1 21.9147 37.0194 7.57 -0.329558 -1.40432 0.150356 0.698044
1022 1 13.8547 27.2094 4.17 -0.409847 -0.89749 2.03044 -1.61841
1023 1 22.1347 28.5794 3.56 -0.385426 -0.312378 -0.0177703 0.00839857
1024 1 13.1947 34.1094 7.39 -0.389396 -0.050746 -1.95391 0.371115
1025 2 23.5347 27.7594 2.74 0.191007 0.242631 0.249613 -0.242646
1026 2 17.9547 30.3994 2.6 0.193885 0.173014 -0.778966 1.25701
1027 2 12.6847 31.6894 3.29 0.202655 0.689767 -0.383476 1.08408
1028 2 16.7247 29.0794 4.46 0.179041 -0.617834 0.498773 0.550843
1029 2 16.0747 36.4494 11.76 0.196223 -1.92572 -0.273383 -0.129464
1030 2 18.9747 36.9594 1.99 0.175621 -0.00360274 -0.0767832 0.0487013
1031 2 17.8147 34.0294 10.85 0.192167 0.344528 0.250806 -0.896833
1032 2 18.1847 35.1994 1.64 0.184006 0.0442085 0.251641 0.0827896
1033 2 21.1547 35.9594 0.41 0.17763 0.422534 -0.0590879 -0.677237
1034 2 12.7147 25.9294 8.27 0.17344 -1.12378 -0.989638 0.443639
1035 2 17.9047 31.9694 11.15 0.180688 0.237312 0.266808 0.0569082
1036 2 16.2847 29.0594 1.06 0.193773 -0.430984 -1.5975 0.0114867
1037 2 23.9947 35.0794 4.15 0.193318 -0.344373 -0.238339 -0.197753
1038 2 15.4447 33.0594 2.14 0.18516 0.134991 -0.0815603 -0.0868575
1039 2 21.9747 34.9294 10.56 0.183594 0.0381981 -1.11776 -0.571176
1040 2 23.6247 29.7294 6.05 0.169879 -0.438845 0.441057 -1.51325
1041 2 13.1247 28.6494 12.44 0.177372 -0.291536 -0.537383 -0.242261
1042 2 12.8747 30.3994 4.88 0.191063 -0.911665 -0.445049 0.172006
1043 2 21.9547 34.3694 3.94 0.198767 -0.777874 0.453477 0.709549
1044 2 21.5247 30.7794 9.68 0.18363 -0.87355 -0.13189 0.694477
1045 2 20.3647 28.7194 0.8 0.157297 -0.370783 1.9901 0.389995
1046 2 16.6747 28.1094 8.21 0.191194 -1.42391 0.140274 -0.00568395
1047 2 17.7147 30.7894 8.19 0.18637 0.231096 -0.07603 -0.406442
1048 2 16.8847 35.7894 3.14 0.186774 -0.369911 -0.59313 0.691878
1049 2 19.3747 29.4494 4.89 0.1968 0.140635 0.23838 0.137516
1050 2 24.3247 26.4994 11.75 0.177225 0.6136 1.1535 -0.980104
1051 2 19.2347 33.4294 3.09 0.175367 0.0995762 0.21834 0.449165
1052 2 18.0647 29.8794 10.13 0.221124 0.00679955 -0.644038 0.23631
1053 2 15.5347 31.5494 6.98 0.191091 1.43385 -0.115633 0.191254
1054 2 24.1747 33.1094 6.86 0.191114 -0.600482 -0.54332 -0.0195903
1055 2 20.8447 28.3394 6.18 0.180759 0.299567 0.121715 0.376312
1056 2 17.0847 27.2594 12.16 0.183436 0.77399 -0.148301 -0.517185
1057 2 13.1847 36.5794 3.86 0.193332 1.24462 0.486274 -0.165095
1058 2 13.5447 30.1894 9.72 0.198265 -0.394016 -0.607497 0.476833
1059 2 19.9847 33.9994 0.83 0.192117 -0.0556303 -0.517783 -0.239876
1060 2 23.8047 31.0894 11.9 0.192143 -0.194158 -0.0569257 0.0439586
1061 2 18.2947 27.0994 7.53 0.183621 0.49782 1.05773 0.321723
1062 2 21.2547 26.8994 9.89 0.182684 0.0117868 -0.0969341 -0.0595085
1063 2 14.6147 27.3194 7.46 0.202487 -1.14915 -0.170404 -0.334927
1064 2 22.5447 27.4194 6.55 0.181258 0.112965 -0.135628 -0.230582
1065 2 21.5147 29.1794 10.91 0.184907 -0.265508 -0.504534 0.000997289
1066 2 13.0847 33.0194 1.45 0.199679 0.509341 0.674728 -0.308512
1067 2 23.5647 29.0894 8.14 0.202259 -0.183426 0.403123 0.312258
1068 2 23.4747 36.9194 0.58 0.195342 0.754057 1.17491 0.0467453
1069 2 19.2747 26.7294 12.19 0.187672 -0.296909 0.227217 0.205491
1070 2 21.5747 35.3394 7.25 0.185572 -0.160227 0.106156 -0.44307
1071 2 14.2047 37.3294 6.8 0.185593 -1.1838 1.35753 -0.0950531
1072 2 19.8147 36.7694 5.08 0.175797 0.637223 -0.474332 -0.169102
1073 2 18.0347 33.1794 7.44 0.218995 0.0580233 -0.600419 -0.182315
1074 2 20.5847 37.0094 10.86 0.195424 -0.210874 -1.20674 0.445494
1075 2 17.9247 24.9494 6.32 0.18894 0.122025 0.408566 -0.084234
1076 2 13.4347 36.8794 0.41 0.187845 0.420669 0.0199796 0.498786
1077 2 16.9847 35.8394 5.79 0.183359 -0.0166711 0.130466 0.932377
1078 2 23.3847 31.1794 1.65 0.201455 -0.0271694 0.593443 -0.475464
1079 2 14.9647 35.4394 9.76 0.218255 1.17314 -0.879291 -1.41998
1080 2 17.1847 27.2994 2.42 0.184874 0.756478 -0.550826 1.19338
1081 2 21.2847 33.1594 11.56 0.185769 0.648324 0.253477 -0.371366
1082 2 23.3347 30.9494 9.58 0.177024 -0.149975 -0.45076 -1.36993
1083 2 14.5947 30.8794 11.18 0.183133 0.198183 0.153318 -0.208364
1084 2 12.9347 33.9494 9.13 0.170818 -0.195475 -0.175709 0.133158
1085 2 21.1347 37.2294 8.15 0.197812 0.866151 0.118074 -0.768133
1086 2 14.2047 26.3294 4.07 0.192692 -0.221713 -1.0133 -0.531416
1087 2 22.4947 29.3294 4.1 0.192316 -0.125961 -0.745322 -0.0156306
1088 2 13.8847 33.3794 7.32 0.197897 -0.57679 0.967196 -0.266634
1089 2 24.6947 28.2094 1.68 0.205745 -0.637712 -0.790009 0.707794
1090 2 18.7147 31.1094 1.56 0.195051 -0.288682 -0.189981 -0.31042
1091 2 23.9447 32.7394 3.14 0.211302 -0.832487 0.597958 0.813061
1092 2 15.4047 28.3294 4.61 0.180348 -0.53317 -0.0679234 0.0315736
1093 2 17.4847 36.0594 11.3 0.203951 0.127361 -0.381019 -0.58503
1094 2 20.0447 37.2794 3.03 0.186688 0.821779 -0.728647 2.61786
1095 2 18.3847 34.5694 9.37 0.201527 -0.668939 -0.412497 0.824149
1096 2 17.3747 36.3494 0.96 0.192241 -0.183066 0.0484327 -0.0612416
1097 2 21.3647 36.5694 1.69 0.18221 -0.842534 1.45771 1.60206
1098 2 24.5147 26.2494 9.54 0.171109 -0.388881 0.41818 1.32797
1099 2 16.6147 32.1694 11.8 0.187174 -1.26443 -0.132451 0.621881
1100 2 15.1147 27.9794 1.05 0.196793 0.335521 0.328193 0.0513109
1101 2 24.3347 35.4794 5.56 0.212695 0.132243 -0.756167 2.53358
1102 2 16.7147 32.1194 2.16 0.187744 0.0819511 0.043744 -0.0145404
1103 2 23.2447 34.1094 10.18 0.18992 -0.381695 -0.31247 0.00070787
1104 2 23.1247 31.0894 5.44 0.199547 0.402555 -0.469568 -0.0890518
1105 2 13.9547 29.7894 0.53 0.18783 -0.395821 -0.206727 0.454046
1106 2 14.3847 30.2494 4.61 0.202921 1.01911 -0.676922 -0.246066
1107 2 22.4647 34.5294 2.47 0.193895 -0.0946654 -0.934625 1.59326
1108 2 20.8547 31.3194 11.04 0.181307 0.148153 0.822081 0.80343
1109 2 21.0247 29.1794 2.01 0.171346 -0.324578 0.687868 0.564193
1110 2 15.5647 29.1694 8.41 0.18604 -0.390234 -0.00342416 0.188252
1111 2 17.5647 30.4294 6.6 0.200549 0.113953 0.0926987 0.568103
1112 2 16.4147 34.4694 3.89 0.200318 -0.122319 0.404636 -0.363294
1113 2 18.6147 28.5194 3.9 0.1805 0.0639791 0.4286 0.0335366
1114 2 23.8447 27.8094 10.99 0.186121 0.0359964 -0.322489 0.130678
1115 2 18.4047 32.9094 4.26 0.206262 1.14921 0.802735 -0.0191905
1116 2 19.2547 30.7894 9.83 0.201105 2.05202 -0.296833 0.216442
1117 2 14.2747 31.4794 6.16 0.187749 -0.772063 -0.352094 -1.05868
1118 2 22.6347 33.2494 6.88 0.185475 -0.393807 -0.00302563 -0.0332425
1119 2 21.1847 29.5594 7.12 0.196504 -0.74439 -0.329156 -0.441255
1120 2 17.2847 25.9694 11.38 0.193743 0.366893 -0.114328 0.0286693
1121 2 14.8247 36.5994 3.7 0.187953 -1.23537 0.0337522 0.0339373
1122 2 14.4647 30.9894 8.92 0.193418 0.561646 -0.413324 0.789855
1123 2 18.4947 33.3694 0.61 0.185432 1.45642 0.977453 0.978241
1124 2 24.5647 31.9394 10.81 0.183183 0.12494 0.27528 0.110938
1125 2 19.2547 28.3494 7.31 0.173814 -1.21255 -0.276885 1.47211
1126 2 19.9647 26.8794 9.1 0.171167 0.337062 -0.72539 0.216946
1127 2 13.6947 27.1494 6.18 0.198333 -0.10062 0.233889 -1.4432
1128 2 21.7547 26.0794 6.35 0.177466 0.392017 1.8779 -1.00921
1129 2 21.2847 27.7894 11.69 0.189554 0.0720537 0.182749 -0.115953
1130 2 13.8347 34.3294 0.85 0.203751 -0.146567 0.597056 0.00257002
1131 2 24.5747 28.1094 7.5 0.198004 2.70534 -1.03042 0.0528948
1132 2 23.8247 25.8394 1.34 0.189016 1.08991 -0.904641 -1.35611
1133 2 19.8747 26.7094 1.24 0.192865 0.551751 -0.285866 -1.97594
1134 2 21.5947 34.3194 8.28 0.178035 0.441272 -0.710186 2.23737
1135 2 15.4147 36.5494 6.88 0.189438 0.458861 -0.880796 0.139718
1136 2 19.9447 35.3194 4.47 0.181808 0.703653 1.2892 0.431932
1137 2 19.1347 34.2894 7.47 0.206107 2.27187 -0.0386711 -0.80815
1138 2 19.7347 35.6594 10.93 0.190335 -0.341787 -0.0505402 -0.227408
1139 2 17.8947 25.9594 5.12 0.197986 -0.0709392 0.236637 -0.237737
1140 2 14.3647 36.4594 1.62 0.180734 -0.408998 0.667422 -0.854436
1141 2 17.4947 35.4394 7.26 0.212012 -0.248125 -0.14401 -0.376964
1142 2 22.1747 30.4094 1.11 0.183029 -0.54485 -0.0114447 -0.514611
1143 2 14.1747 36.7394 9.82 0.204137 -0.0845064 -0.535778 0.289284
1144 2 18.4647 26.4594 2.67 0.172569 0.700389 -0.75236 -0.238799
1145 2 21.7847 32.0894 0.21 0.198756 -0.392319 0.548761 -0.17682
1146 2 23.1547 31.4494 7.97 0.182266 -0.32312 -1.06154 1.28723
1147 2 14.3047 31.9194 12.37 0.189127 0.480656 -0.368903 -0.146698
1148 2 13.5247 34.0494 10.59 0.184944 -2.28756 -0.741718 -1.18022
1149 2 22.6347 37.2794 8.15 0.190645 0.843574 0.202291 0.0267479
1150 2 13.3647 27.4494 3.28 0.175966 0.878411 -1.05619 2.45227
1151 2 21.7847 27.8994 4.17 0.202541 0.483837 0.409815 -0.157695
1152 2 13.5547 34.9794 7.21 0.213347 0.787003 0.737323 -0.31223
1153 1 11.83 39.8941 2.18 -0.418491 0.276261 0.65724 -0.200447
1154 1 5.36 43.3341 1.81 -0.356018 0.340911 0.424454 -0.894578
1155 1 12.17 44.6741 2.71 -0.375673 0.108528 -0.210878 -1.8584
1156 1 3.38 41.6141 4.84 -0.401225 0.921431 -0.302089 -0.574769
1157 1 4.54 49.0641 11.9 -0.352542 1.21088 0.715087 0.323267
1158 1 7.34 37.5141 2.18 -0.37567 -0.527858 1.20552 -1.95305
1159 1 5.73 47.2341 10.31 -0.425659 0.260723 0.04377 0.365967
1160 1 5.32 48.5241 1.83 -0.352291 -0.145285 -0.360944 0.00940595
1161 1 9.39 48.4741 1.1 -0.384824 0.87233 -1.5421 -0.918567
1162 1 12.06 37.9741 8.92 -0.432941 1.38584 0.308629 -1.86889
1163 1 5.01 45.0541 11.74 -0.33121 1.05767 -0.0925155 -0.578517
1164 1 3.64 40.5241 1.08 -0.329397 0.44899 1.35168 0.0296349
1165 1 11.88 48.2341 4.7 -0.392604 0.205201 1.05595 -2.45389
1166 1 3.88 45.3841 2.51 -0.464722 -0.268826 0.355886 0.23038
1167 1 9.82 46.4941 10.18 -0.365582 0.339117 1.66962 0.487166
1168 1 11 42.6441 5.17 -0.319962 0.138442 0.0560953 1.91462
1169 1 0.97 41.4541 0.84 -0.355457 0.745127 0.775215 -0.7377
1170 1 1.24 43.3241 4.76 -0.374759 -0.193258 0.928608 -0.35491
1171 1 10.1 46.4241 3.32 -0.354105 0.91086 0.645119 -2.49249
1172 1 8.39 43.0541 10.39 -0.373467 0.80679 -0.606322 -1.8374
1173 1 8.06 42.0541 1.3 -0.36779 0.704095 -2.90774 -0.607363
1174 1 3.23 40.6741 8.26 -0.401808 2.13809 -0.39747 -0.157452
1175 1 5.02 43.5441 7.29 -0.410388 -0.430368 0.3663 -0.264925
1176 1 3.94 47.8841 3.95 -0.402417 0.43345 0.317389 -0.0584539
1177 1 6.25 41.8941 4.21 -0.380617 -0.393419 -0.784999 -0.268452
1178 1 12.18 39.6841 11.11 -0.382165 -0.8474 -0.74292 1.12308
1179 1 6.76 45.9041 4.07 -0.403469 -1.14814 -0.761849 -0.553759
1180 1 5.87 43.1741 9.79 -0.349098 -2.30359 0.637256 -0.272995
1181 1 2.18 44.2441 6.99 -0.400385 -0.466051 0.744032 1.54717
1182 1 10.89 45.0241 6.78 -0.350545 0.88549 0.57082 0.0353067
1183 1 8.03 41.6141 6.57 -0.327247 0.482403 0.0230103 -0.0798922
1184 1 5.29 39.2541 11.56 -0.42046 -1.16673 0.352022 0.519739
1185 1 1.53 49.4941 3.45 -0.410573 0.411212 -0.955702 0.467782
1186 1 2.04 42.8241 9.71 -0.307415 -0.567451 1.07234 -2.10707
1187 1 6.66 46.3841 1.21 -0.337037 -1.61838 -1.07738 -0.670257
1188 1 11.75 43.5141 11.01 -0.375509 0.109257 0.0675035 -0.490571
1189 1 6.11 40.4041 7.96 -0.386894 0.529779 -0.929995 -1.62598
1190 1 8.22 38.7141 9.43 -0.395923 -0.580877 0.677733 -0.139483
1191 1 1.31 39.3541 7.09 -0.381656 1.03092 0.0207587 1.57354
1192 1 9.48 39.4441 5.92 -0.386544 -0.46653 -1.80292 1.20748
1193 1 9.33 40.6741 10.97 -0.415653 0.36723 -0.156969 0.177834
1194 1 1.31 45.8241 0.81 -0.391659 -0.324867 -1.14428 0.312422
1195 1 11.25 40.8141 7.51 -0.362951 -2.51327 0.883595 -0.600285
1196 1 11.7 37.6641 0.6 -0.37721 -1.746 -0.0721632 1.00753
1197 1 7.63 39.3741 0.28 -0.388924 0.17984 0.446075 1.55237
1198 1 8.86 46.8541 7.4 -0.387579 -0.342423 0.412217 -1.61066
1199 1 2.01 48.8741 6.89 -0.409735 0.35272 -0.503187 0.166524
1200 1 8.02 48.6041 4.66 -0.386294 -1.67358 -0.912959 -0.155668
1201 1 5.82 46.5141 7.71 -0.322042 -1.62593 0.149885 0.939809
1202 1 8.11 48.5241 11.22 -0.344452 0.363637 1.2492 -0.544016
1203 1 5.94 38.1741 5.91 -0.430297 0.345437 0.00807761 0.132111
1204 1 1.88 48.9941 0.64 -0.447611 -0.0496913 -0.645396 0.598335
1205 1 4.66 48.6141 6.73 -0.350741 -0.301457 -0.466377 -1.15938
1206 1 10.32 43.5941 0.89 -0.326365 0.996621 -0.77716 1.09355
1207 1 2.01 48.4041 10.33 -0.382521 -0.874494 1.41964 0.876584
1208 1 5.36 39.3941 3.14 -0.366244 -1.58898 1.40299 -0.800899
1209 1 8.56 44.9241 12.17 -0.416319 -0.455311 -0.0905661 0.376133
1210 1 10.51 43.1441 8.66 -0.394248 0.641334 1.45689 0.242613
1211 1 2.37 43.5641 12.1 -0.416527 -0.176633 0.565357 1.08139
1212 1 0.3 46.1041 10.05 -0.378105 1.90132 0.67817 1.19038
1213 1 9.47 49.4641 7.57 -0.329556 -1.40442 0.150356 0.69803
1214 1 1.41 39.6541 4.17 -0.409848 -0.897568 2.03063 -1.6184
1215 1 9.69 41.0241 3.56 -0.385426 -0.312379 -0.0177901 0.00842771
1216 1 0.75 46.5541 7.39 -0.389395 -0.0507822 -1.95384 0.371113
1217 2 11.09 40.2041 2.74 0.191006 0.242647 0.249602 -0.24266
1218 2 5.51 42.8441 2.6 0.193885 0.173021 -0.77899 1.25705
1219 2 0.24 44.1341 3.29 0.202655 0.689833 -0.383543 1.08415
1220 2 4.28 41.5241 4.46 0.179041 -0.617817 0.498772 0.550836
1221 2 3.63 48.8941 11.76 0.196223 -1.92572 -0.273387 -0.129467
1222 2 6.53 49.4041 1.99 0.175621 -0.00356213 -0.0767466 0.0487073
1223 2 5.37 46.4741 10.85 0.192166 0.344557 0.250895 -0.896865
1224 2 5.74 47.6441 1.64 0.184005 0.0441679 0.25174 0.0828007
1225 2 8.71 48.4041 0.41 0.17763 0.422534 -0.059088 -0.67724
1226 2 0.27 38.3741 8.27 0.17344 -1.1238 -0.989663 0.443659
1227 2 5.46 44.4141 11.15 0.180688 0.237308 0.266778 0.056896
1228 2 3.84 41.5041 1.06 0.193773 -0.430977 -1.59742 0.0114858
1229 2 11.55 47.5241 4.15 0.193318 -0.344374 -0.238336 -0.197765
1230 2 3 45.5041 2.14 0.185158 0.135027 -0.0815629 -0.0868403
1231 2 9.53 47.3741 10.56 0.183594 0.0382092 -1.11776 -0.571179
1232 2 11.18 42.1741 6.05 0.169879 -0.438852 0.44108 -1.51327
1233 2 0.68 41.0941 12.44 0.177371 -0.291524 -0.537364 -0.24223
1234 2 0.43 42.8441 4.88 0.191063 -0.911681 -0.445056 0.172006
1235 2 9.51 46.8141 3.94 0.198767 -0.777874 0.453476 0.70955
1236 2 9.08 43.2241 9.68 0.183631 -0.873525 -0.131871 0.694462
1237 2 7.92 41.1641 0.8 0.157297 -0.370779 1.9901 0.389999
1238 2 4.23 40.5541 8.21 0.191194 -1.4239 0.140265 -0.00568383
1239 2 5.27 43.2341 8.19 0.18637 0.231089 -0.0760124 -0.406458
1240 2 4.44 48.2341 3.14 0.186774 -0.369908 -0.593128 0.691878
1241 2 6.93 41.8941 4.89 0.1968 0.140647 0.238381 0.137526
1242 2 11.88 38.9441 11.75 0.177225 0.613593 1.1535 -0.9801
1243 2 6.79 45.8741 3.09 0.175367 0.0995725 0.21834 0.44917
1244 2 5.62 42.3241 10.13 0.221124 0.00678021 -0.644121 0.236344
1245 2 3.09 43.9941 6.98 0.191091 1.4339 -0.115646 0.191251
1246 2 11.73 45.5541 6.86 0.191114 -0.600412 -0.543248 -0.0195815
1247 2 8.4 40.7841 6.18 0.180758 0.29953 0.12178 0.376338
1248 2 4.64 39.7041 12.16 0.183436 0.774022 -0.148328 -0.517215
1249 2 0.74 49.0241 3.86 0.193333 1.24459 0.48623 -0.165066
1250 2 1.1 42.6341 9.72 0.198266 -0.394066 -0.607509 0.476838
1251 2 7.54 46.4441 0.83 0.192116 -0.0556552 -0.517777 -0.239857
1252 2 11.36 43.5341 11.9 0.192142 -0.194152 -0.0569323 0.0439452
1253 2 5.85 39.5441 7.53 0.18362 0.497793 1.05763 0.321671
1254 2 8.81 39.3441 9.89 0.182684 0.011786 -0.0969264 -0.0595053
1255 2 2.17 39.7641 7.46 0.202487 -1.14914 -0.170397 -0.334919
1256 2 10.1 39.8641 6.55 0.181258 0.112949 -0.135644 -0.230601
1257 2 9.07 41.6241 10.91 0.184907 -0.265488 -0.5046 0.000997148
1258 2 0.64 45.4641 1.45 0.199679 0.509371 0.674761 -0.308538
1259 2 11.12 41.5341 8.14 0.202259 -0.183427 0.403084 0.312221
1260 2 11.03 49.3641 0.58 0.195342 0.754034 1.17486 0.0467432
1261 2 6.83 39.1741 12.19 0.187671 -0.296872 0.227234 0.205507
1262 2 9.13 47.7841 7.25 0.185572 -0.160236 0.106132 -0.443067
1263 2 1.76 49.7741 6.8 0.185591 -1.18373 1.35732 -0.0950306
1264 2 7.37 49.2141 5.08 0.175797 0.637209 -0.474321 -0.169095
1265 2 5.59 45.6241 7.44 0.218995 0.0580376 -0.600412 -0.182319
1266 2 8.14 49.4541 10.86 0.195424 -0.210895 -1.20675 0.44549
1267 2 5.48 37.3941 6.32 0.188941 0.121996 0.408525 -0.0842124
1268 2 0.99 49.3241 0.41 0.187845 0.420705 0.0199583 0.498798
1269 2 4.54 48.2841 5.79 0.183359 -0.0166748 0.130495 0.932404
1270 2 10.94 43.6241 1.65 0.201455 -0.0271509 0.593445 -0.475445
1271 2 2.52 47.8841 9.76 0.218254 1.17321 -0.879359 -1.42005
1272 2 4.74 39.7441 2.42 0.184874 0.756459 -0.550805 1.19336
1273 2 8.84 45.6041 11.56 0.185769 0.648331 0.253485 -0.371372
1274 2 10.89 43.3941 9.58 0.177024 -0.149982 -0.450764 -1.36993
1275 2 2.15 43.3241 11.18 0.183133 0.198179 0.153311 -0.20838
1276 2 0.49 46.3941 9.13 0.170818 -0.195477 -0.175711 0.133159
1277 2 8.69 49.6741 8.15 0.197812 0.866201 0.11806 -0.768166
1278 2 1.76 38.7741 4.07 0.192692 -0.221642 -1.01347 -0.531435
1279 2 10.05 41.7741 4.1 0.192316 -0.125972 -0.74534 -0.015636
1280 2 1.44 45.8241 7.32 0.197896 -0.576744 0.967128 -0.266636
1281 2 12.25 40.6541 1.68 0.205745 -0.637695 -0.78997 0.707772
1282 2 6.27 43.5541 1.56 0.19505 -0.2887 -0.189987 -0.310415
1283 2 11.5 45.1841 3.14 0.211302 -0.832407 0.5979 0.813007
1284 2 2.96 40.7741 4.61 0.180348 -0.533165 -0.0679217 0.0315762
1285 2 5.04 48.5041 11.3 0.203951 0.127417 -0.381089 -0.585097
1286 2 7.6 49.7241 3.03 0.186687 0.821768 -0.728642 2.61782
1287 2 5.94 47.0141 9.37 0.201526 -0.668936 -0.412472 0.824169
1288 2 4.93 48.7941 0.96 0.192241 -0.183053 0.0484216 -0.0612318
1289 2 8.92 49.0141 1.69 0.182209 -0.842522 1.45769 1.60204
1290 2 12.07 38.6941 9.54 0.171107 -0.388884 0.418124 1.32793
1291 2 4.17 44.6141 11.8 0.187175 -1.2645 -0.132503 0.621878
1292 2 2.67 40.4241 1.05 0.196793 0.335574 0.328216 0.0513109
1293 2 11.89 47.9241 5.56 0.212694 0.132247 -0.756138 2.53349
1294 2 4.27 44.5641 2.16 0.187744 0.0819105 0.0438443 -0.0144963
1295 2 10.8 46.5541 10.18 0.189919 -0.381739 -0.312466 0.000710567
1296 2 10.68 43.5341 5.44 0.199547 0.402556 -0.469571 -0.0890456
1297 2 1.51 42.2341 0.53 0.18783 -0.395779 -0.206668 0.454022
1298 2 1.94 42.6941 4.61 0.202921 1.01911 -0.676913 -0.246065
1299 2 10.02 46.9741 2.47 0.193894 -0.0946658 -0.934625 1.59326
1300 2 8.41 43.7641 11.04 0.181308 0.148164 0.822135 0.80347
1301 2 8.58 41.6241 2.01 0.171346 -0.324568 0.687859 0.564209
1302 2 3.12 41.6141 8.41 0.186039 -0.390215 -0.00361697 0.188223
1303 2 5.12 42.8741 6.6 0.200548 0.113941 0.0927519 0.568144
1304 2 3.97 46.9141 3.89 0.200318 -0.122322 0.404635 -0.363294
1305 2 6.17 40.9641 3.9 0.180499 0.063979 0.428603 0.033537
1306 2 11.4 40.2541 10.99 0.186121 0.0359961 -0.322491 0.13068
1307 2 5.96 45.3541 4.26 0.206263 1.14918 0.802719 -0.0191867
1308 2 6.81 43.2341 9.83 0.201106 2.05204 -0.296836 0.216443
1309 2 1.83 43.9241 6.16 0.187749 -0.772058 -0.352089 -1.05867
1310 2 10.19 45.6941 6.88 0.185475 -0.393827 -0.00297371 -0.0332356
1311 2 8.74 42.0041 7.12 0.196504 -0.744389 -0.329144 -0.441247
1312 2 4.84 38.4141 11.38 0.193742 0.366903 -0.114304 0.0286763
1313 2 2.38 49.0441 3.7 0.187954 -1.23532 0.0337037 0.0339624
1314 2 2.02 43.4341 8.92 0.193418 0.561649 -0.413322 0.789852
1315 2 6.05 45.8141 0.61 0.185432 1.45643 0.97749 0.97827
1316 2 12.12 44.3841 10.81 0.183182 0.124873 0.275118 0.110968
1317 2 6.81 40.7941 7.31 0.173814 -1.21258 -0.276916 1.47214
1318 2 7.52 39.3241 9.1 0.171167 0.337093 -0.725411 0.21696
1319 2 1.25 39.5941 6.18 0.198333 -0.100619 0.233882 -1.44317
1320 2 9.31 38.5241 6.35 0.177467 0.392006 1.87785 -1.00919
1321 2 8.84 40.2341 11.69 0.189554 0.0720369 0.182727 -0.115925
1322 2 1.39 46.7741 0.85 0.203751 -0.146575 0.597055 0.00257673
1323 2 12.13 40.5541 7.5 0.198004 2.70532 -1.03041 0.0528892
1324 2 11.38 38.2841 1.34 0.189016 1.08991 -0.90464 -1.35611
1325 2 7.43 39.1541 1.24 0.192864 0.551766 -0.285852 -1.97596
1326 2 9.15 46.7641 8.28 0.178034 0.441265 -0.710186 2.23735
1327 2 2.97 48.9941 6.88 0.189437 0.458821 -0.880797 0.139718
1328 2 7.5 47.7641 4.47 0.181809 0.703652 1.2892 0.431932
1329 2 6.69 46.7341 7.47 0.206107 2.27187 -0.0386837 -0.808152
1330 2 7.29 48.1041 10.93 0.190335 -0.341794 -0.050521 -0.227417
1331 2 5.45 38.4041 5.12 0.197987 -0.070962 0.236646 -0.237766
1332 2 1.92 48.9041 1.62 0.180733 -0.408998 0.667422 -0.854437
1333 2 5.05 47.8841 7.26 0.212011 -0.248132 -0.143999 -0.376958
1334 2 9.73 42.8541 1.11 0.183029 -0.544814 -0.0113933 -0.514628
1335 2 1.73 49.1841 9.82 0.204137 -0.0844696 -0.535888 0.289358
1336 2 6.02 38.9041 2.67 0.17257 0.70035 -0.752328 -0.238768
1337 2 9.34 44.5341 0.21 0.198756 -0.392296 0.548756 -0.176809
1338 2 10.71 43.8941 7.97 0.182266 -0.323127 -1.06155 1.28723
1339 2 1.86 44.3641 12.37 0.189125 0.480713 -0.368997 -0.146724
1340 2 1.08 46.4941 10.59 0.184945 -2.28757 -0.74172 -1.18022
1341 2 10.19 49.7241 8.15 0.190646 0.843625 0.202309 0.0267913
1342 2 0.92 39.8941 3.28 0.175967 0.878418 -1.0562 2.45228
1343 2 9.34 40.3441 4.17 0.202541 0.483853 0.409851 -0.157719
1344 2 1.11 47.4241 7.21 0.213346 0.78699 0.737318 -0.312225
1345 1 24.2747 39.8941 2.18 -0.418491 0.276261 0.657239 -0.200448
1346 1 17.8047 43.3341 1.81 -0.356018 0.340906 0.424461 -0.894587
1347 1 24.6147 44.6741 2.71 -0.375674 0.108528 -0.21088 -1.8584
1348 1 15.8247 41.6141 4.84 -0.401225 0.921448 -0.30209 -0.574776
1349 1 16.9847 49.0641 11.9 -0.352542 1.21089 0.715085 0.323265
1350 1 19.7847 37.5141 2.18 -0.375671 -0.527849 1.20552 -1.95304
1351 1 18.1747 47.2341 10.31 -0.425659 0.260723 0.0437702 0.365967
1352 1 17.7647 48.5241 1.83 -0.352291 -0.145273 -0.360956 0.00941065
1353 1 21.8347 48.4741 1.1 -0.384824 0.872344 -1.54211 -0.918582
1354 1 24.5047 37.9741 8.92 -0.432941 1.38585 0.308638 -1.8689
1355 1 17.4547 45.0541 11.74 -0.33121 1.05766 -0.092504 -0.578503
1356 1 16.0847 40.5241 1.08 -0.329397 0.449027 1.35169 0.0296354
1357 1 24.3247 48.2341 4.7 -0.392605 0.205201 1.05595 -2.45389
1358 1 16.3247 45.3841 2.51 -0.464722 -0.268774 0.355859 0.230387
1359 1 22.2647 46.4941 10.18 -0.365581 0.339083 1.66961 0.487166
1360 1 23.4447 42.6441 5.17 -0.319963 0.138441 0.0560967 1.91462
1361 1 13.4147 41.4541 0.84 -0.355458 0.74514 0.77523 -0.737706
1362 1 13.6847 43.3241 4.76 -0.374759 -0.19328 0.928605 -0.354908
1363 1 22.5447 46.4241 3.32 -0.354105 0.91086 0.645119 -2.49249
1364 1 20.8347 43.0541 10.39 -0.373467 0.806812 -0.606312 -1.83742
1365 1 20.5047 42.0541 1.3 -0.36779 0.704111 -2.90775 -0.607347
1366 1 15.6747 40.6741 8.26 -0.401808 2.13809 -0.397476 -0.157454
1367 1 17.4647 43.5441 7.29 -0.410388 -0.430372 0.366307 -0.264925
1368 1 16.3847 47.8841 3.95 -0.402417 0.433446 0.317393 -0.0584488
1369 1 18.6947 41.8941 4.21 -0.380616 -0.393408 -0.784998 -0.268441
1370 1 24.6247 39.6841 11.11 -0.382164 -0.847406 -0.742929 1.12308
1371 1 19.2047 45.9041 4.07 -0.403469 -1.14817 -0.761867 -0.553753
1372 1 18.3147 43.1741 9.79 -0.349098 -2.30356 0.637259 -0.272995
1373 1 14.6247 44.2441 6.99 -0.400385 -0.466 0.744022 1.54717
1374 1 23.3347 45.0241 6.78 -0.350546 0.885564 0.570798 0.0353031
1375 1 20.4747 41.6141 6.57 -0.327248 0.482372 0.0230163 -0.0799025
1376 1 17.7347 39.2541 11.56 -0.42046 -1.16671 0.352033 0.519734
1377 1 13.9747 49.4941 3.45 -0.410573 0.411218 -0.955705 0.467785
1378 1 14.4847 42.8241 9.71 -0.307415 -0.567482 1.07233 -2.10707
1379 1 19.1047 46.3841 1.21 -0.337037 -1.61843 -1.07739 -0.670247
1380 1 24.1947 43.5141 11.01 -0.375509 0.109257 0.0674909 -0.490577
1381 1 18.5547 40.4041 7.96 -0.386894 0.529766 -0.929999 -1.62597
1382 1 20.6647 38.7141 9.43 -0.395923 -0.580845 0.677713 -0.139466
1383 1 13.7547 39.3541 7.09 -0.381656 1.03093 0.0207633 1.57354
1384 1 21.9247 39.4441 5.92 -0.386544 -0.466535 -1.80292 1.20748
1385 1 21.7747 40.6741 10.97 -0.415652 0.36723 -0.156969 0.177835
1386 1 13.7547 45.8241 0.81 -0.391659 -0.324868 -1.14428 0.312423
1387 1 23.6947 40.8141 7.51 -0.362952 -2.51334 0.883617 -0.600281
1388 1 24.1447 37.6641 0.6 -0.377211 -1.74597 -0.0721276 1.00753
1389 1 20.0747 39.3741 0.28 -0.388924 0.179875 0.446087 1.55237
1390 1 21.3047 46.8541 7.4 -0.387579 -0.342442 0.412198 -1.61068
1391 1 14.4547 48.8741 6.89 -0.409735 0.352681 -0.50319 0.166525
1392 1 20.4647 48.6041 4.66 -0.386294 -1.6736 -0.912943 -0.155657
1393 1 18.2647 46.5141 7.71 -0.322041 -1.62587 0.149903 0.939796
1394 1 20.5547 48.5241 11.22 -0.344452 0.363557 1.24917 -0.544044
1395 1 18.3847 38.1741 5.91 -0.430297 0.345404 0.00807075 0.132083
1396 1 14.3247 48.9941 0.64 -0.447611 -0.0497024 -0.645392 0.598331
1397 1 17.1047 48.6141 6.73 -0.350741 -0.301468 -0.466365 -1.1594
1398 1 22.7647 43.5941 0.89 -0.326364 0.996632 -0.777156 1.09357
1399 1 14.4547 48.4041 10.33 -0.382521 -0.87451 1.41966 0.876592
1400 1 17.8047 39.3941 3.14 -0.366244 -1.58899 1.40299 -0.800905
1401 1 21.0047 44.9241 12.17 -0.416319 -0.455277 -0.0905655 0.376138
1402 1 22.9547 43.1441 8.66 -0.394248 0.641322 1.45688 0.242613
1403 1 14.8147 43.5641 12.1 -0.416527 -0.176638 0.565364 1.08139
1404 1 12.7447 46.1041 10.05 -0.378105 1.90131 0.678168 1.19037
1405 1 21.9147 49.4641 7.57 -0.329557 -1.40432 0.150364 0.698042
1406 1 13.8547 39.6541 4.17 -0.409848 -0.897563 2.03062 -1.61839
1407 1 22.1347 41.0241 3.56 -0.385426 -0.312399 -0.0178201 0.00842386
1408 1 13.1947 46.5541 7.39 -0.389395 -0.0507937 -1.95383 0.371117
1409 2 23.5347 40.2041 2.74 0.191007 0.242648 0.249603 -0.242659
1410 2 17.9547 42.8441 2.6 0.193885 0.173025 -0.778994 1.25706
1411 2 12.6847 44.1341 3.29 0.202655 0.689834 -0.383545 1.08415
1412 2 16.7247 41.5241 4.46 0.179041 -0.617834 0.498773 0.550843
1413 2 16.0747 48.8941 11.76 0.196222 -1.92572 -0.273387 -0.129466
1414 2 18.9747 49.4041 1.99 0.175621 -0.00357081 -0.0767517 0.0487068
1415 2 17.8147 46.4741 10.85 0.192165 0.344562 0.250897 -0.89687
1416 2 18.1847 47.6441 1.64 0.184005 0.0441647 0.251747 0.082803
1417 2 21.1547 48.4041 0.41 0.17763 0.422534 -0.0590861 -0.677238
1418 2 12.7147 38.3741 8.27 0.17344 -1.12379 -0.989655 0.443649
1419 2 17.9047 44.4141 11.15 0.180688 0.237323 0.266766 0.0568817
1420 2 16.2847 41.5041 1.06 0.193774 -0.430985 -1.59743 0.011486
1421 2 23.9947 47.5241 4.15 0.193319 -0.344373 -0.238335 -0.197765
1422 2 15.4447 45.5041 2.14 0.18516 0.13499 -0.0815603 -0.0868573
1423 2 21.9747 47.3741 10.56 0.183594 0.0382 -1.11776 -0.571176
1424 2 23.6247 42.1741 6.05 0.169879 -0.438853 0.441081 -1.51327
1425 2 13.1247 41.0941 12.44 0.177371 -0.291523 -0.537362 -0.24223
1426 2 12.8747 42.8441 4.88 0.191063 -0.911665 -0.445047 0.172004
1427 2 21.9547 46.8141 3.94 0.198767 -0.777874 0.453476 0.70955
1428 2 21.5247 43.2241 9.68 0.18363 -0.873545 -0.131877 0.694476
1429 2 20.3647 41.1641 0.8 0.157297 -0.370783 1.9901 0.389997
1430 2 16.6747 40.5541 8.21 0.191193 -1.4239 0.140263 -0.00568403
1431 2 17.7147 43.2341 8.19 0.18637 0.231089 -0.0760143 -0.406456
1432 2 16.8847 48.2341 3.14 0.186774 -0.369909 -0.593129 0.691877
1433 2 19.3747 41.8941 4.89 0.1968 0.140634 0.238381 0.137515
1434 2 24.3247 38.9441 11.75 0.177225 0.6136 1.1535 -0.980106
1435 2 19.2347 45.8741 3.09 0.175367 0.0995769 0.218342 0.449167
1436 2 18.0647 42.3241 10.13 0.221123 0.00678076 -0.644121 0.236344
1437 2 15.5347 43.9941 6.98 0.191092 1.43385 -0.115633 0.191253
1438 2 24.1747 45.5541 6.86 0.191114 -0.600435 -0.543266 -0.0195836
1439 2 20.8447 40.7841 6.18 0.180759 0.29954 0.121768 0.376334
1440 2 17.0847 39.7041 12.16 0.183436 0.774011 -0.148324 -0.517207
1441 2 13.1847 49.0241 3.86 0.193333 1.24459 0.48623 -0.165066
1442 2 13.5447 42.6341 9.72 0.198265 -0.394036 -0.607504 0.476838
1443 2 19.9847 46.4441 0.83 0.192116 -0.0556141 -0.517775 -0.239876
1444 2 23.8047 43.5341 11.9 0.192144 -0.19416 -0.0569346 0.0439595
1445 2 18.2947 39.5441 7.53 0.18362 0.497792 1.05762 0.321671
1446 2 21.2547 39.3441 9.89 0.182684 0.0117893 -0.0969294 -0.0595042
1447 2 14.6147 39.7641 7.46 0.202487 -1.14915 -0.170402 -0.334923
1448 2 22.5447 39.8641 6.55 0.181258 0.112948 -0.135647 -0.2306
1449 2 21.5147 41.6241 10.91 0.184907 -0.265489 -0.504601 0.000997284
1450 2 13.0847 45.4641 1.45 0.199679 0.509373 0.674761 -0.308539
1451 2 23.5647 41.5341 8.14 0.202259 -0.183423 0.403078 0.312216
1452 2 23.4747 49.3641 0.58 0.195341 0.754001 1.17483 0.0467424
1453 2 19.2747 39.1741 12.19 0.187672 -0.296898 0.227227 0.205496
1454 2 21.5747 47.7841 7.25 0.185572 -0.160227 0.106153 -0.443069
1455 2 14.2047 49.7741 6.8 0.185591 -1.18373 1.35732 -0.095031
1456 2 19.8147 49.2141 5.08 0.175797 0.637227 -0.474335 -0.169105
1457 2 18.0347 45.6241 7.44 0.218995 0.0580355 -0.60042 -0.182321
1458 2 20.5847 49.4541 10.86 0.195423 -0.210885 -1.20675 0.44549
1459 2 17.9247 37.3941 6.32 0.18894 0.122008 0.408536 -0.0842154
1460 2 13.4347 49.3241 0.41 0.187845 0.420715 0.0199548 0.498802
1461 2 16.9847 48.2841 5.79 0.183359 -0.0166707 0.130495 0.932407
1462 2 23.3847 43.6241 1.65 0.201455 -0.0271686 0.593443 -0.475462
1463 2 14.9647 47.8841 9.76 0.218254 1.17323 -0.879371 -1.42007
1464 2 17.1847 39.7441 2.42 0.184875 0.756466 -0.55081 1.19337
1465 2 21.2847 45.6041 11.56 0.185768 0.648323 0.253477 -0.371365
1466 2 23.3347 43.3941 9.58 0.177024 -0.149975 -0.45076 -1.36992
1467 2 14.5947 43.3241 11.18 0.183133 0.198181 0.15331 -0.208377
1468 2 12.9347 46.3941 9.13 0.170818 -0.195475 -0.175711 0.133159
1469 2 21.1347 49.6741 8.15 0.197812 0.866152 0.118072 -0.768133
1470 2 14.2047 38.7741 4.07 0.192692 -0.221645 -1.01347 -0.531435
1471 2 22.4947 41.7741 4.1 0.192316 -0.12596 -0.745322 -0.0156243
1472 2 13.8847 45.8241 7.32 0.197897 -0.576734 0.96712 -0.266637
1473 2 24.6947 40.6541 1.68 0.205745 -0.637695 -0.789969 0.707771
1474 2 18.7147 43.5541 1.56 0.195051 -0.2887 -0.189988 -0.310413
1475 2 23.9447 45.1841 3.14 0.211302 -0.832407 0.5979 0.813007
1476 2 15.4047 40.7741 4.61 0.180348 -0.533165 -0.0679213 0.0315764
1477 2 17.4847 48.5041 11.3 0.203951 0.127417 -0.381088 -0.585097
1478 2 20.0447 49.7241 3.03 0.186687 0.821767 -0.728641 2.61781
1479 2 18.3847 47.0141 9.37 0.201526 -0.66894 -0.412472 0.824175
1480 2 17.3747 48.7941 0.96 0.192241 -0.183061 0.0484258 -0.0612402
1481 2 21.3647 49.0141 1.69 0.18221 -0.842535 1.45771 1.60206
1482 2 24.5147 38.6941 9.54 0.171108 -0.388887 0.418124 1.32793
1483 2 16.6147 44.6141 11.8 0.187175 -1.26451 -0.132501 0.62188
1484 2 15.1147 40.4241 1.05 0.196793 0.335545 0.328216 0.0513105
1485 2 24.3347 47.9241 5.56 0.212694 0.132247 -0.756137 2.53349
1486 2 16.7147 44.5641 2.16 0.187744 0.081897 0.0438657 -0.0144882
1487 2 23.2447 46.5541 10.18 0.189919 -0.381696 -0.312469 0.000708536
1488 2 23.1247 43.5341 5.44 0.199547 0.402557 -0.469572 -0.0890463
1489 2 13.9547 42.2341 0.53 0.18783 -0.395792 -0.206683 0.454027
1490 2 14.3847 42.6941 4.61 0.202921 1.01911 -0.67692 -0.246066
1491 2 22.4647 46.9741 2.47 0.193894 -0.094666 -0.934625 1.59326
1492 2 20.8547 43.7641 11.04 0.181308 0.14816 0.822131 0.803468
1493 2 21.0247 41.6241 2.01 0.171346 -0.324578 0.687868 0.564196
1494 2 15.5647 41.6141 8.41 0.18604 -0.390218 -0.00360933 0.188224
1495 2 17.5647 42.8741 6.6 0.200548 0.113944 0.0927483 0.568142
1496 2 16.4147 46.9141 3.89 0.200318 -0.122319 0.404633 -0.363295
1497 2 18.6147 40.9641 3.9 0.180499 0.0639796 0.428603 0.0335373
1498 2 23.8447 40.2541 10.99 0.186121 0.0359952 -0.322489 0.130678
1499 2 18.4047 45.3541 4.26 0.206262 1.1492 0.802735 -0.0191895
1500 2 19.2547 43.2341 9.83 0.201106 2.05201 -0.296838 0.216443
1501 2 14.2747 43.9241 6.16 0.187749 -0.772062 -0.352092 -1.05867
1502 2 22.6347 45.6941 6.88 0.185476 -0.393874 -0.00293533 -0.0332305
1503 2 21.1847 42.0041 7.12 0.196504 -0.744367 -0.329136 -0.441234
1504 2 17.2847 38.4141 11.38 0.193743 0.366889 -0.114319 0.0286733
1505 2 14.8247 49.0441 3.7 0.187954 -1.23532 0.0337069 0.0339604
1506 2 14.4647 43.4341 8.92 0.193418 0.56165 -0.413322 0.789852
1507 2 18.4947 45.8141 0.61 0.185431 1.45645 0.977498 0.978278
1508 2 24.5647 44.3841 10.81 0.183182 0.124882 0.275133 0.11096
1509 2 19.2547 40.7941 7.31 0.173814 -1.21257 -0.276911 1.47213
1510 2 19.9647 39.3241 9.1 0.171167 0.337059 -0.725388 0.216944
1511 2 13.6947 39.5941 6.18 0.198332 -0.10062 0.233883 -1.44317
1512 2 21.7547 38.5241 6.35 0.177467 0.392011 1.87786 -1.00919
1513 2 21.2847 40.2341 11.69 0.189554 0.072037 0.182728 -0.115927
1514 2 13.8347 46.7741 0.85 0.203751 -0.146575 0.597056 0.00257621
1515 2 24.5747 40.5541 7.5 0.198004 2.70538 -1.03043 0.0528916
1516 2 23.8247 38.2841 1.34 0.189016 1.08991 -0.904643 -1.35611
1517 2 19.8747 39.1541 1.24 0.192864 0.551756 -0.285856 -1.97595
1518 2 21.5947 46.7641 8.28 0.178035 0.441272 -0.710186 2.23737
1519 2 15.4147 48.9941 6.88 0.189438 0.458861 -0.880793 0.139717
1520 2 19.9447 47.7641 4.47 0.181809 0.703653 1.2892 0.431931
1521 2 19.1347 46.7341 7.47 0.206108 2.27182 -0.0386952 -0.808138
1522 2 19.7347 48.1041 10.93 0.190335 -0.341728 -0.050495 -0.227392
1523 2 17.8947 38.4041 5.12 0.197986 -0.0709392 0.236639 -0.237735
1524 2 14.3647 48.9041 1.62 0.180733 -0.408999 0.667422 -0.854437
1525 2 17.4947 47.8841 7.26 0.212011 -0.248123 -0.14401 -0.376952
1526 2 22.1747 42.8541 1.11 0.183029 -0.54481 -0.011391 -0.514626
1527 2 14.1747 49.1841 9.82 0.204137 -0.0844659 -0.535896 0.289363
1528 2 18.4647 38.9041 2.67 0.17257 0.700349 -0.752328 -0.238768
1529 2 21.7847 44.5341 0.21 0.198757 -0.392317 0.548761 -0.176817
1530 2 23.1547 43.8941 7.97 0.182266 -0.323122 -1.06154 1.28723
1531 2 14.3047 44.3641 12.37 0.189126 0.480717 -0.369004 -0.146726
1532 2 13.5247 46.4941 10.59 0.184945 -2.28756 -0.741718 -1.18022
1533 2 22.6347 49.7241 8.15 0.190646 0.843573 0.20229 0.0267476
1534 2 13.3647 39.8941 3.28 0.175966 0.878416 -1.0562 2.45228
1535 2 21.7847 40.3441 4.17 0.202541 0.48386 0.409861 -0.157728
1536 2 13.5547 47.4241 7.21 0.213347 0.786994 0.737325 -0.312227
1537 1 11.83 2.56 14.6247 -0.418491 0.276282 0.657268 -0.200468
1538 1 5.36 6 14.2547 -0.356018 0.340912 0.42442 -0.894531
1539 1 12.17 7.34 15.1547 -0.375672 0.108644 -0.210976 -1.85838
1540 1 3.38 4.28 17.2847 -0.401224 0.921451 -0.30208 -0.574771
1541 1 4.54 11.73 24.3447 -0.352542 1.21092 0.715028 0.323212
1542 1 7.34 0.18 14.6247 -0.375672 -0.52787 1.20547 -1.95297
1543 1 5.73 9.9 22.7547 -0.425659 0.260738 0.0438401 0.365968
1544 1 5.32 11.19 14.2747 -0.352291 -0.145312 -0.360894 0.00940559
1545 1 9.39 11.14 13.5447 -0.384824 0.872356 -1.54211 -0.918576
1546 1 12.06 0.64 21.3647 -0.432941 1.38582 0.308562 -1.86893
1547 1 5.01 7.72 24.1847 -0.33121 1.05765 -0.0925367 -0.578522
1548 1 3.64 3.19 13.5247 -0.329397 0.448999 1.35171 0.0296344
1549 1 11.88 10.9 17.1447 -0.392604 0.205198 1.05594 -2.45392
1550 1 3.88 8.05 14.9547 -0.464721 -0.268897 0.355994 0.230416
1551 1 9.82 9.16 22.6247 -0.365582 0.339125 1.66958 0.487148
1552 1 11 5.31 17.6147 -0.319962 0.138425 0.0561472 1.91458
1553 1 0.97 4.12 13.2847 -0.355457 0.745147 0.775251 -0.737744
1554 1 1.24 5.99 17.2047 -0.374759 -0.193294 0.928652 -0.354904
1555 1 10.1 9.09 15.7647 -0.354105 0.910841 0.645148 -2.4925
1556 1 8.39 5.72 22.8347 -0.373467 0.806784 -0.606273 -1.83736
1557 1 8.06 4.72 13.7447 -0.36779 0.704089 -2.90775 -0.607372
1558 1 3.23 3.34 20.7047 -0.401809 2.1381 -0.397578 -0.157473
1559 1 5.02 6.21 19.7347 -0.410388 -0.43037 0.366376 -0.264796
1560 1 3.94 10.55 16.3947 -0.402417 0.433445 0.317442 -0.0584444
1561 1 6.25 4.56 16.6547 -0.380615 -0.393407 -0.78497 -0.268431
1562 1 12.18 2.35 23.5547 -0.382165 -0.847401 -0.742859 1.12304
1563 1 6.76 8.57 16.5147 -0.403468 -1.14814 -0.761849 -0.553725
1564 1 5.87 5.84 22.2347 -0.349097 -2.30361 0.63717 -0.272959
1565 1 2.18 6.91 19.4347 -0.400385 -0.466051 0.74403 1.54716
1566 1 10.89 7.69 19.2247 -0.350545 0.885487 0.570872 0.0353108
1567 1 8.03 4.28 19.0147 -0.327248 0.482384 0.0230758 -0.0798664
1568 1 5.29 1.92 24.0047 -0.42046 -1.16673 0.352039 0.519748
1569 1 1.53 12.16 15.8947 -0.410573 0.411201 -0.955768 0.467825
1570 1 2.04 5.49 22.1547 -0.307416 -0.56746 1.07232 -2.10703
1571 1 6.66 9.05 13.6547 -0.337037 -1.61835 -1.07734 -0.670234
1572 1 11.75 6.18 23.4547 -0.375509 0.109224 0.0674194 -0.490555
1573 1 6.11 3.07 20.4047 -0.386894 0.529728 -0.930091 -1.62598
1574 1 8.22 1.38 21.8747 -0.395924 -0.580894 0.677696 -0.139501
1575 1 1.31 2.02 19.5347 -0.381656 1.03093 0.0207507 1.57358
1576 1 9.48 2.11 18.3647 -0.386543 -0.46657 -1.80299 1.20747
1577 1 9.33 3.34 23.4147 -0.415653 0.367199 -0.157032 0.177903
1578 1 1.31 8.49 13.2547 -0.391659 -0.324869 -1.14432 0.312421
1579 1 11.25 3.48 19.9547 -0.362951 -2.51323 0.883529 -0.600337
1580 1 11.7 0.33 13.0447 -0.377211 -1.74595 -0.0720665 1.00756
1581 1 7.63 2.04 12.7247 -0.388924 0.179828 0.446086 1.55234
1582 1 8.86 9.52 19.8447 -0.387579 -0.342408 0.412165 -1.61057
1583 1 2.01 11.54 19.3347 -0.409735 0.352757 -0.503281 0.166535
1584 1 8.02 11.27 17.1047 -0.386294 -1.67357 -0.91298 -0.15568
1585 1 5.82 9.18 20.1547 -0.322041 -1.62596 0.149847 0.93981
1586 1 8.11 11.19 23.6647 -0.344452 0.363688 1.24922 -0.543984
1587 1 5.94 0.84 18.3547 -0.430297 0.345402 0.00807489 0.132085
1588 1 1.88 11.66 13.0847 -0.447611 -0.0496581 -0.64541 0.598364
1589 1 4.66 11.28 19.1747 -0.350743 -0.30146 -0.466363 -1.15938
1590 1 10.32 6.26 13.3347 -0.326365 0.996653 -0.777115 1.09355
1591 1 2.01 11.07 22.7747 -0.382521 -0.874414 1.41953 0.87656
1592 1 5.36 2.06 15.5847 -0.366244 -1.58903 1.40303 -0.800856
1593 1 8.56 7.59 24.6147 -0.416318 -0.455305 -0.09055 0.376107
1594 1 10.51 5.81 21.1047 -0.394249 0.641335 1.4569 0.242616
1595 1 2.37 6.23 24.5447 -0.416527 -0.176588 0.56526 1.08134
1596 1 0.3 8.77 22.4947 -0.378106 1.90132 0.678168 1.1904
1597 1 9.47 12.13 20.0147 -0.329556 -1.4044 0.150378 0.698071
1598 1 1.41 2.32 16.6147 -0.409847 -0.89752 2.0305 -1.61841
1599 1 9.69 3.69 16.0047 -0.385426 -0.312372 -0.0177716 0.00844923
1600 1 0.75 9.22 19.8347 -0.389396 -0.0507549 -1.95381 0.371105
1601 2 11.09 2.87 15.1847 0.191007 0.242643 0.249606 -0.242658
1602 2 5.51 5.51 15.0447 0.193884 0.173012 -0.778964 1.257
1603 2 0.24 6.8 15.7347 0.202655 0.689781 -0.383491 1.0841
1604 2 4.28 4.19 16.9047 0.179041 -0.61783 0.498772 0.550842
1605 2 3.63 11.56 24.2047 0.196223 -1.92571 -0.273382 -0.129463
1606 2 6.53 12.07 14.4347 0.175621 -0.00358934 -0.0767712 0.0486998
1607 2 5.37 9.14 23.2947 0.192166 0.344539 0.250839 -0.896852
1608 2 5.74 10.31 14.0847 0.184005 0.0441912 0.251689 0.0827967
1609 2 8.71 11.07 12.8547 0.17763 0.422524 -0.059091 -0.677249
1610 2 0.27 1.04 20.7147 0.17344 -1.12379 -0.989653 0.44365
1611 2 5.46 7.08 23.5947 0.180688 0.237308 0.266789 0.0569001
1612 2 3.84 4.17 13.5047 0.193773 -0.430974 -1.59744 0.0114865
1613 2 11.55 10.19 16.5947 0.193318 -0.344367 -0.238322 -0.197751
1614 2 3 8.17 14.5847 0.185159 0.135047 -0.0815668 -0.0868324
1615 2 9.53 10.04 23.0047 0.183594 0.0382003 -1.11773 -0.571161
1616 2 11.18 4.84 18.4947 0.169879 -0.438843 0.44105 -1.51323
1617 2 0.68 3.76 24.8847 0.177372 -0.291542 -0.537389 -0.242275
1618 2 0.43 5.51 17.3247 0.191063 -0.911685 -0.445062 0.172009
1619 2 9.51 9.48 16.3847 0.198767 -0.777857 0.453466 0.709529
1620 2 9.08 5.89 22.1247 0.183631 -0.873517 -0.131881 0.694445
1621 2 7.92 3.83 13.2447 0.157297 -0.370776 1.99011 0.390004
1622 2 4.23 3.22 20.6547 0.191193 -1.4239 0.14027 -0.00568249
1623 2 5.27 5.9 20.6347 0.18637 0.23108 -0.076002 -0.40651
1624 2 4.44 10.9 15.5847 0.186774 -0.369909 -0.593135 0.691876
1625 2 6.93 4.56 17.3347 0.1968 0.140635 0.238379 0.137515
1626 2 11.88 1.61 24.1947 0.177225 0.613578 1.15345 -0.980064
1627 2 6.79 8.54 15.5347 0.175368 0.0995737 0.218339 0.449137
1628 2 5.62 4.99 22.5747 0.221123 0.00679852 -0.644041 0.23631
1629 2 3.09 6.66 19.4247 0.191091 1.4339 -0.115646 0.191252
1630 2 11.73 8.22 19.3047 0.191114 -0.600427 -0.543268 -0.0195837
1631 2 8.4 3.45 18.6247 0.180758 0.299554 0.121719 0.376307
1632 2 4.64 2.37 24.6047 0.183435 0.774026 -0.148328 -0.517219
1633 2 0.74 11.69 16.3047 0.193332 1.24462 0.486266 -0.165095
1634 2 1.1 5.3 22.1647 0.198266 -0.394056 -0.607508 0.476836
1635 2 7.54 9.11 13.2747 0.192115 -0.0556636 -0.517782 -0.239859
1636 2 11.36 6.2 24.3447 0.192143 -0.194151 -0.0569282 0.0439462
1637 2 5.85 2.21 19.9747 0.18362 0.497813 1.0577 0.3217
1638 2 8.81 2.01 22.3347 0.182684 0.0118094 -0.0968985 -0.0594868
1639 2 2.17 2.43 19.9047 0.202487 -1.14914 -0.170401 -0.334916
1640 2 10.1 2.53 18.9947 0.181257 0.112982 -0.135616 -0.230566
1641 2 9.07 4.29 23.3547 0.184907 -0.265492 -0.504578 0.000994931
1642 2 0.64 8.13 13.8947 0.199679 0.509367 0.674755 -0.308535
1643 2 11.12 4.2 20.5847 0.202259 -0.183433 0.403136 0.312272
1644 2 11.03 12.03 13.0247 0.195342 0.754073 1.17491 0.0467425
1645 2 6.83 1.84 24.6347 0.187672 -0.296909 0.22722 0.205473
1646 2 9.13 10.45 19.6947 0.185572 -0.160225 0.106174 -0.443076
1647 2 1.76 12.44 19.2447 0.185592 -1.18377 1.35742 -0.0950424
1648 2 7.37 11.88 17.5247 0.175798 0.637192 -0.474302 -0.169082
1649 2 5.59 8.29 19.8847 0.218995 0.0580389 -0.600392 -0.182311
1650 2 8.14 12.12 23.3047 0.195424 -0.210889 -1.20673 0.445481
1651 2 5.48 0.06 18.7647 0.18894 0.122002 0.408538 -0.0842219
1652 2 0.99 11.99 12.8547 0.187844 0.420674 0.0199732 0.498787
1653 2 4.54 10.95 18.2347 0.183359 -0.0166722 0.130484 0.932407
1654 2 10.94 6.29 14.0947 0.201455 -0.0271588 0.59344 -0.475454
1655 2 2.52 10.55 22.2047 0.218254 1.17315 -0.879298 -1.41999
1656 2 4.74 2.41 14.8647 0.184875 0.756461 -0.550815 1.19335
1657 2 8.84 8.27 24.0047 0.185769 0.648325 0.253464 -0.371353
1658 2 10.89 6.06 22.0247 0.177024 -0.149984 -0.450765 -1.36993
1659 2 2.15 5.99 23.6247 0.183133 0.198182 0.153319 -0.208362
1660 2 0.49 9.06 21.5747 0.170817 -0.195471 -0.175703 0.133147
1661 2 8.69 12.34 20.5947 0.197812 0.866211 0.118053 -0.768179
1662 2 1.76 1.44 16.5147 0.192692 -0.221688 -1.01336 -0.53142
1663 2 10.05 4.44 16.5447 0.192316 -0.12598 -0.745356 -0.015652
1664 2 1.44 8.49 19.7647 0.197896 -0.576757 0.967148 -0.266636
1665 2 12.25 3.32 14.1247 0.205745 -0.63771 -0.790004 0.707792
1666 2 6.27 6.22 14.0047 0.19505 -0.288687 -0.189983 -0.310419
1667 2 11.5 7.85 15.5847 0.211303 -0.832467 0.597943 0.81305
1668 2 2.96 3.44 17.0547 0.180348 -0.533171 -0.0679287 0.0315717
1669 2 5.04 11.17 23.7447 0.203951 0.127377 -0.381037 -0.585045
1670 2 7.6 12.39 15.4747 0.186688 0.821773 -0.728637 2.61783
1671 2 5.94 9.68 21.8147 0.201526 -0.668938 -0.412489 0.824157
1672 2 4.93 11.46 13.4047 0.192241 -0.183057 0.0484276 -0.0612362
1673 2 8.92 11.68 14.1347 0.18221 -0.842536 1.45771 1.60206
1674 2 12.07 1.36 21.9847 0.171109 -0.388883 0.418177 1.32798
1675 2 4.17 7.28 24.2447 0.187175 -1.26449 -0.13249 0.62188
1676 2 2.67 3.09 13.4947 0.196792 0.335562 0.328204 0.0513109
1677 2 11.89 10.59 18.0047 0.212694 0.132246 -0.756142 2.53351
1678 2 4.27 7.23 14.6047 0.187744 0.0819543 0.0437436 -0.0145394
1679 2 10.8 9.22 22.6247 0.189919 -0.381736 -0.312463 0.000710443
1680 2 10.68 6.2 17.8847 0.199547 0.402563 -0.469593 -0.0890571
1681 2 1.51 4.9 12.9747 0.18783 -0.395804 -0.206706 0.45404
1682 2 1.94 5.36 17.0547 0.202921 1.01915 -0.676954 -0.246075
1683 2 10.02 9.64 14.9147 0.193894 -0.0946653 -0.934642 1.59328
1684 2 8.41 6.43 23.4847 0.181308 0.148156 0.822105 0.803451
1685 2 8.58 4.29 14.4547 0.171346 -0.324564 0.687854 0.564212
1686 2 3.12 4.28 20.8547 0.186041 -0.390223 -0.00351216 0.188239
1687 2 5.12 5.54 19.0447 0.200549 0.113955 0.0926683 0.568067
1688 2 3.97 9.58 16.3347 0.200319 -0.122318 0.40459 -0.3633
1689 2 6.17 3.63 16.3447 0.180499 0.0639778 0.428576 0.0335283
1690 2 11.4 2.92 23.4347 0.186121 0.0360103 -0.322502 0.130682
1691 2 5.96 8.02 16.7047 0.206263 1.14918 0.802719 -0.0191873
1692 2 6.81 5.9 22.2747 0.201106 2.05204 -0.296832 0.216439
1693 2 1.83 6.59 18.6047 0.187749 -0.77206 -0.352089 -1.05867
1694 2 10.19 8.36 19.3247 0.185475 -0.393807 -0.00300247 -0.0332371
1695 2 8.74 4.67 19.5647 0.196503 -0.744389 -0.329143 -0.441246
1696 2 4.84 1.08 23.8247 0.193742 0.366899 -0.114317 0.028674
1697 2 2.38 11.71 16.1447 0.187954 -1.23534 0.0337322 0.0339501
1698 2 2.02 6.1 21.3647 0.193418 0.561648 -0.413298 0.789823
1699 2 6.05 8.48 13.0547 0.185432 1.45641 0.977456 0.978246
1700 2 12.12 7.05 23.2547 0.183183 0.124905 0.275198 0.110956
1701 2 6.81 3.46 19.7547 0.173814 -1.21256 -0.276896 1.47211
1702 2 7.52 1.99 21.5447 0.171167 0.337088 -0.725402 0.216958
1703 2 1.25 2.26 18.6247 0.198334 -0.100625 0.233893 -1.44322
1704 2 9.31 1.19 18.7947 0.177467 0.392012 1.8779 -1.00921
1705 2 8.84 2.9 24.1347 0.189554 0.0720758 0.182762 -0.115989
1706 2 1.39 9.44 13.2947 0.203751 -0.14657 0.597105 0.0025783
1707 2 12.13 3.22 19.9447 0.198004 2.70528 -1.0304 0.052892
1708 2 11.38 0.95 13.7847 0.189016 1.08992 -0.904663 -1.35614
1709 2 7.43 1.82 13.6847 0.192864 0.55176 -0.285863 -1.97595
1710 2 9.15 9.43 20.7247 0.178034 0.44124 -0.71018 2.23727
1711 2 2.97 11.66 19.3247 0.189437 0.45882 -0.880805 0.139719
1712 2 7.5 10.43 16.9147 0.181808 0.703654 1.2892 0.431932
1713 2 6.69 9.4 19.9147 0.206107 2.2719 -0.0386737 -0.80816
1714 2 7.29 10.77 23.3747 0.190336 -0.341848 -0.0505555 -0.227434
1715 2 5.45 1.07 17.5647 0.197987 -0.0709372 0.236631 -0.237727
1716 2 1.92 11.57 14.0647 0.180733 -0.408999 0.667423 -0.854456
1717 2 5.05 10.55 19.7047 0.212012 -0.248137 -0.143995 -0.376973
1718 2 9.73 5.52 13.5547 0.183029 -0.544841 -0.0114324 -0.514616
1719 2 1.73 11.85 22.2647 0.204137 -0.0844868 -0.535834 0.289317
1720 2 6.02 1.57 15.1147 0.172569 0.700396 -0.752365 -0.238806
1721 2 9.34 7.2 12.6547 0.198757 -0.392311 0.548765 -0.176821
1722 2 10.71 6.56 20.4147 0.182266 -0.323127 -1.06155 1.28724
1723 2 1.86 7.03 24.8147 0.189127 0.480662 -0.368916 -0.1467
1724 2 1.08 9.16 23.0347 0.184945 -2.28758 -0.741725 -1.18024
1725 2 10.19 12.39 20.5947 0.190646 0.843598 0.202296 0.0267646
1726 2 0.92 2.56 15.7247 0.175967 0.878415 -1.05619 2.45227
1727 2 9.34 3.01 16.6147 0.202541 0.483853 0.409849 -0.157722
1728 2 1.11 10.09 19.6547 0.213346 0.786976 0.737274 -0.312217
1729 1 24.2747 2.56 14.6247 -0.418491 0.276282 0.657269 -0.200471
1730 1 17.8047 6 14.2547 -0.356018 0.340908 0.424427 -0.894537
1731 1 24.6147 7.34 15.1547 -0.375672 0.108645 -0.210978 -1.85838
1732 1 15.8247 4.28 17.2847 -0.401225 0.921469 -0.302081 -0.57478
1733 1 16.9847 11.73 24.3447 -0.352543 1.21092 0.715027 0.323208
1734 1 19.7847 0.18 14.6247 -0.375671 -0.527863 1.20547 -1.95297
1735 1 18.1747 9.9 22.7547 -0.425659 0.260739 0.0438391 0.365965
1736 1 17.7647 11.19 14.2747 -0.352291 -0.145301 -0.360905 0.00941229
1737 1 21.8347 11.14 13.5447 -0.384824 0.872374 -1.54213 -0.918593
1738 1 24.5047 0.64 21.3647 -0.432942 1.38584 0.30857 -1.86894
1739 1 17.4547 7.72 24.1847 -0.331211 1.05764 -0.0925304 -0.578514
1740 1 16.0847 3.19 13.5247 -0.329397 0.449038 1.35172 0.0296358
1741 1 24.3247 10.9 17.1447 -0.392604 0.2052 1.05595 -2.45392
1742 1 16.3247 8.05 14.9547 -0.464721 -0.26885 0.35597 0.230425
1743 1 22.2647 9.16 22.6247 -0.365582 0.339091 1.66957 0.487148
1744 1 23.4447 5.31 17.6147 -0.319963 0.138425 0.0561482 1.91458
1745 1 13.4147 4.12 13.2847 -0.355457 0.74516 0.775268 -0.737749
1746 1 13.6847 5.99 17.2047 -0.374759 -0.193317 0.928644 -0.3549
1747 1 22.5447 9.09 15.7647 -0.354105 0.910842 0.645146 -2.4925
1748 1 20.8347 5.72 22.8347 -0.373467 0.806805 -0.606266 -1.83738
1749 1 20.5047 4.72 13.7447 -0.36779 0.704104 -2.90775 -0.607358
1750 1 15.6747 3.34 20.7047 -0.401808 2.13811 -0.397584 -0.157473
1751 1 17.4647 6.21 19.7347 -0.410389 -0.430375 0.366379 -0.264796
1752 1 16.3847 10.55 16.3947 -0.402417 0.433439 0.317445 -0.0584393
1753 1 18.6947 4.56 16.6547 -0.380616 -0.393397 -0.784971 -0.26842
1754 1 24.6247 2.35 23.5547 -0.382165 -0.847409 -0.742868 1.12305
1755 1 19.2047 8.57 16.5147 -0.403469 -1.14818 -0.761869 -0.553721
1756 1 18.3147 5.84 22.2347 -0.349097 -2.30359 0.637171 -0.272961
1757 1 14.6247 6.91 19.4347 -0.400386 -0.466 0.744019 1.54717
1758 1 23.3347 7.69 19.2247 -0.350546 0.88556 0.57085 0.0353086
1759 1 20.4747 4.28 19.0147 -0.327248 0.482353 0.0230775 -0.0798761
1760 1 17.7347 1.92 24.0047 -0.42046 -1.16671 0.352053 0.519745
1761 1 13.9747 12.16 15.8947 -0.410573 0.411205 -0.955771 0.467827
1762 1 14.4847 5.49 22.1547 -0.307416 -0.567494 1.07231 -2.10703
1763 1 19.1047 9.05 13.6547 -0.337037 -1.6184 -1.07736 -0.670225
1764 1 24.1947 6.18 23.4547 -0.375509 0.109223 0.0674028 -0.490561
1765 1 18.5547 3.07 20.4047 -0.386894 0.529717 -0.930095 -1.62598
1766 1 20.6647 1.38 21.8747 -0.395923 -0.580864 0.677678 -0.139485
1767 1 13.7547 2.02 19.5347 -0.381656 1.03094 0.0207559 1.57358
1768 1 21.9247 2.11 18.3647 -0.386544 -0.466575 -1.803 1.20747
1769 1 21.7747 3.34 23.4147 -0.415653 0.367197 -0.157033 0.177904
1770 1 13.7547 8.49 13.2547 -0.391659 -0.324872 -1.14432 0.312421
1771 1 23.6947 3.48 19.9547 -0.362952 -2.51329 0.883549 -0.600334
1772 1 24.1447 0.33 13.0447 -0.377211 -1.74592 -0.0720322 1.00756
1773 1 20.0747 2.04 12.7247 -0.388924 0.179863 0.446095 1.55235
1774 1 21.3047 9.52 19.8447 -0.38758 -0.342423 0.412149 -1.61058
1775 1 14.4547 11.54 19.3347 -0.409735 0.352715 -0.503284 0.166535
1776 1 20.4647 11.27 17.1047 -0.386294 -1.67359 -0.912964 -0.15567
1777 1 18.2647 9.18 20.1547 -0.322041 -1.6259 0.149864 0.939797
1778 1 20.5547 11.19 23.6647 -0.344451 0.36361 1.24919 -0.544011
1779 1 18.3847 0.84 18.3547 -0.430297 0.345371 0.00806896 0.132061
1780 1 14.3247 11.66 13.0847 -0.447611 -0.0496743 -0.645405 0.598362
1781 1 17.1047 11.28 19.1747 -0.350743 -0.301472 -0.466352 -1.15939
1782 1 22.7647 6.26 13.3347 -0.326365 0.996665 -0.777112 1.09356
1783 1 14.4547 11.07 22.7747 -0.382521 -0.87443 1.41955 0.876569
1784 1 17.8047 2.06 15.5847 -0.366244 -1.58904 1.40304 -0.800865
1785 1 21.0047 7.59 24.6147 -0.416318 -0.455268 -0.0905517 0.376112
1786 1 22.9547 5.81 21.1047 -0.394249 0.641322 1.45689 0.242614
1787 1 14.8147 6.23 24.5447 -0.416527 -0.176594 0.565263 1.08133
1788 1 12.7447 8.77 22.4947 -0.378106 1.90131 0.678165 1.1904
1789 1 21.9147 12.13 20.0147 -0.329557 -1.4043 0.150388 0.698083
1790 1 13.8547 2.32 16.6147 -0.409848 -0.897515 2.03049 -1.61841
1791 1 22.1347 3.69 16.0047 -0.385426 -0.312392 -0.0178012 0.00844677
1792 1 13.1947 9.22 19.8347 -0.389396 -0.0507695 -1.95381 0.371108
1793 2 23.5347 2.87 15.1847 0.191006 0.242642 0.249607 -0.242655
1794 2 17.9547 5.51 15.0447 0.193885 0.173016 -0.778967 1.25701
1795 2 12.6847 6.8 15.7347 0.202655 0.689781 -0.383491 1.0841
1796 2 16.7247 4.19 16.9047 0.179041 -0.617849 0.498774 0.550851
1797 2 16.0747 11.56 24.2047 0.196223 -1.92571 -0.273382 -0.129461
1798 2 18.9747 12.07 14.4347 0.175621 -0.00359445 -0.0767742 0.0487004
1799 2 17.8147 9.14 23.2947 0.192166 0.344545 0.250843 -0.896855
1800 2 18.1847 10.31 14.0847 0.184005 0.0441885 0.251694 0.0827993
1801 2 21.1547 11.07 12.8547 0.17763 0.422523 -0.0590883 -0.677247
1802 2 12.7147 1.04 20.7147 0.17344 -1.12378 -0.989644 0.443636
1803 2 17.9047 7.08 23.5947 0.180688 0.237322 0.26678 0.0568894
1804 2 16.2847 4.17 13.5047 0.193773 -0.43098 -1.59744 0.0114865
1805 2 23.9947 10.19 16.5947 0.193318 -0.344368 -0.238323 -0.197751
1806 2 15.4447 8.17 14.5847 0.18516 0.135013 -0.0815646 -0.0868485
1807 2 21.9747 10.04 23.0047 0.183595 0.0381911 -1.11772 -0.571159
1808 2 23.6247 4.84 18.4947 0.169879 -0.438843 0.441051 -1.51323
1809 2 13.1247 3.76 24.8847 0.177372 -0.291541 -0.537388 -0.242276
1810 2 12.8747 5.51 17.3247 0.191063 -0.911666 -0.44505 0.172006
1811 2 21.9547 9.48 16.3847 0.198767 -0.777857 0.453467 0.709529
1812 2 21.5247 5.89 22.1247 0.183631 -0.873536 -0.131888 0.694459
1813 2 20.3647 3.83 13.2447 0.157297 -0.37078 1.99011 0.390002
1814 2 16.6747 3.22 20.6547 0.191194 -1.4239 0.140269 -0.00568253
1815 2 17.7147 5.9 20.6347 0.18637 0.231079 -0.0760029 -0.406507
1816 2 16.8847 10.9 15.5847 0.186774 -0.369908 -0.593137 0.691874
1817 2 19.3747 4.56 17.3347 0.1968 0.140624 0.23838 0.137503
1818 2 24.3247 1.61 24.1947 0.177225 0.613586 1.15346 -0.980072
1819 2 19.2347 8.54 15.5347 0.175367 0.0995788 0.218341 0.449137
1820 2 18.0647 4.99 22.5747 0.221124 0.00679879 -0.644041 0.23631
1821 2 15.5347 6.66 19.4247 0.191092 1.43385 -0.115633 0.191254
1822 2 24.1747 8.22 19.3047 0.191113 -0.600452 -0.543286 -0.0195861
1823 2 20.8447 3.45 18.6247 0.180759 0.299563 0.12171 0.376304
1824 2 17.0847 2.37 24.6047 0.183436 0.774018 -0.148327 -0.517215
1825 2 13.1847 11.69 16.3047 0.193332 1.24463 0.486267 -0.165096
1826 2 13.5447 5.3 22.1647 0.198267 -0.394025 -0.607503 0.476837
1827 2 19.9847 9.11 13.2747 0.192117 -0.0556219 -0.51778 -0.239876
1828 2 23.8047 6.2 24.3447 0.192143 -0.194159 -0.0569297 0.0439591
1829 2 18.2947 2.21 19.9747 0.183621 0.497812 1.0577 0.3217
1830 2 21.2547 2.01 22.3347 0.182684 0.011813 -0.0969017 -0.0594855
1831 2 14.6147 2.43 19.9047 0.202487 -1.14915 -0.170405 -0.334918
1832 2 22.5447 2.53 18.9947 0.181257 0.112982 -0.135618 -0.230565
1833 2 21.5147 4.29 23.3547 0.184907 -0.265493 -0.504577 0.000994737
1834 2 13.0847 8.13 13.8947 0.199679 0.509369 0.674755 -0.308536
1835 2 23.5647 4.2 20.5847 0.20226 -0.183428 0.403132 0.312268
1836 2 23.4747 12.03 13.0247 0.195342 0.754039 1.17488 0.0467423
1837 2 19.2747 1.84 24.6347 0.187672 -0.296935 0.227213 0.205463
1838 2 21.5747 10.45 19.6947 0.185572 -0.160217 0.10619 -0.443078
1839 2 14.2047 12.44 19.2447 0.185592 -1.18377 1.35742 -0.0950422
1840 2 19.8147 11.88 17.5247 0.175797 0.63721 -0.474315 -0.169092
1841 2 18.0347 8.29 19.8847 0.218995 0.0580371 -0.600397 -0.182312
1842 2 20.5847 12.12 23.3047 0.195424 -0.210879 -1.20672 0.445482
1843 2 17.9247 0.06 18.7647 0.18894 0.122013 0.408547 -0.0842237
1844 2 13.4347 11.99 12.8547 0.187844 0.420687 0.0199685 0.49879
1845 2 16.9847 10.95 18.2347 0.183359 -0.0166678 0.130484 0.932409
1846 2 23.3847 6.29 14.0947 0.201456 -0.0271766 0.593439 -0.475471
1847 2 14.9647 10.55 22.2047 0.218255 1.17316 -0.87931 -1.42001
1848 2 17.1847 2.41 14.8647 0.184875 0.756472 -0.550821 1.19336
1849 2 21.2847 8.27 24.0047 0.185768 0.648317 0.253454 -0.371345
1850 2 23.3347 6.06 22.0247 0.177024 -0.149977 -0.450761 -1.36993
1851 2 14.5947 5.99 23.6247 0.183133 0.198186 0.153319 -0.208356
1852 2 12.9347 9.06 21.5747 0.170817 -0.195469 -0.175702 0.133147
1853 2 21.1347 12.34 20.5947 0.197812 0.866162 0.118064 -0.768146
1854 2 14.2047 1.44 16.5147 0.192692 -0.221691 -1.01335 -0.53142
1855 2 22.4947 4.44 16.5447 0.192316 -0.125968 -0.745338 -0.0156415
1856 2 13.8847 8.49 19.7647 0.197897 -0.576746 0.96714 -0.266637
1857 2 24.6947 3.32 14.1247 0.205746 -0.63771 -0.790005 0.707792
1858 2 18.7147 6.22 14.0047 0.19505 -0.288687 -0.189985 -0.310418
1859 2 23.9447 7.85 15.5847 0.211303 -0.832469 0.597944 0.813051
1860 2 15.4047 3.44 17.0547 0.180348 -0.533171 -0.067928 0.0315721
1861 2 17.4847 11.17 23.7447 0.203951 0.127377 -0.381037 -0.585045
1862 2 20.0447 12.39 15.4747 0.186688 0.821772 -0.728638 2.61783
1863 2 18.3847 9.68 21.8147 0.201526 -0.668941 -0.412488 0.824164
1864 2 17.3747 11.46 13.4047 0.192241 -0.183065 0.0484319 -0.0612436
1865 2 21.3647 11.68 14.1347 0.182209 -0.842551 1.45772 1.60208
1866 2 24.5147 1.36 21.9847 0.171108 -0.388884 0.418179 1.32798
1867 2 16.6147 7.28 24.2447 0.187175 -1.26449 -0.132486 0.621883
1868 2 15.1147 3.09 13.4947 0.196793 0.33553 0.328203 0.0513102
1869 2 24.3347 10.59 18.0047 0.212694 0.132245 -0.756142 2.53351
1870 2 16.7147 7.23 14.6047 0.187744 0.0819429 0.043762 -0.0145329
1871 2 23.2447 9.22 22.6247 0.189919 -0.381693 -0.312466 0.000707951
1872 2 23.1247 6.2 17.8847 0.199547 0.402564 -0.469593 -0.0890572
1873 2 13.9547 4.9 12.9747 0.18783 -0.395818 -0.206723 0.454045
1874 2 14.3847 5.36 17.0547 0.202921 1.01915 -0.676958 -0.246076
1875 2 22.4647 9.64 14.9147 0.193894 -0.0946659 -0.934642 1.59328
1876 2 20.8547 6.43 23.4847 0.181308 0.148153 0.822103 0.803451
1877 2 21.0247 4.29 14.4547 0.171346 -0.324574 0.687862 0.564199
1878 2 15.5647 4.28 20.8547 0.18604 -0.390226 -0.00350558 0.188239
1879 2 17.5647 5.54 19.0447 0.200549 0.113958 0.0926653 0.568065
1880 2 16.4147 9.58 16.3347 0.200319 -0.122315 0.40459 -0.363301
1881 2 18.6147 3.63 16.3447 0.180499 0.063979 0.428577 0.0335285
1882 2 23.8447 2.92 23.4347 0.186121 0.036012 -0.322501 0.13068
1883 2 18.4047 8.02 16.7047 0.206263 1.14921 0.802736 -0.0191901
1884 2 19.2547 5.9 22.2747 0.201106 2.05202 -0.296833 0.21644
1885 2 14.2747 6.59 18.6047 0.187749 -0.772064 -0.352092 -1.05867
1886 2 22.6347 8.36 19.3247 0.185475 -0.393851 -0.00296581 -0.0332324
1887 2 21.1847 4.67 19.5647 0.196504 -0.744367 -0.329134 -0.441233
1888 2 17.2847 1.08 23.8247 0.193742 0.366886 -0.114331 0.0286719
1889 2 14.8247 11.71 16.1447 0.187953 -1.23535 0.0337346 0.0339486
1890 2 14.4647 6.1 21.3647 0.193418 0.561651 -0.413299 0.789824
1891 2 18.4947 8.48 13.0547 0.185432 1.45643 0.977467 0.978255
1892 2 24.5647 7.05 23.2547 0.183183 0.124914 0.275216 0.110949
1893 2 19.2547 3.46 19.7547 0.173814 -1.21255 -0.276891 1.4721
1894 2 19.9647 1.99 21.5447 0.171167 0.337056 -0.72538 0.216943
1895 2 13.6947 2.26 18.6247 0.198334 -0.100625 0.233893 -1.44322
1896 2 21.7547 1.19 18.7947 0.177467 0.392017 1.8779 -1.00921
1897 2 21.2847 2.9 24.1347 0.189554 0.0720761 0.182762 -0.115991
1898 2 13.8347 9.44 13.2947 0.203751 -0.146569 0.597107 0.00257824
1899 2 24.5747 3.22 19.9447 0.198004 2.70534 -1.03042 0.0528941
1900 2 23.8247 0.95 13.7847 0.189016 1.08992 -0.904665 -1.35614
1901 2 19.8747 1.82 13.6847 0.192864 0.551751 -0.285865 -1.97594
1902 2 21.5947 9.43 20.7247 0.178035 0.441243 -0.710179 2.23728
1903 2 15.4147 11.66 19.3247 0.189438 0.458863 -0.880802 0.139719
1904 2 19.9447 10.43 16.9147 0.181808 0.703656 1.2892 0.431931
1905 2 19.1347 9.4 19.9147 0.206107 2.27185 -0.0386847 -0.808146
1906 2 19.7347 10.77 23.3747 0.190336 -0.341783 -0.0505308 -0.227409
1907 2 17.8947 1.07 17.5647 0.197986 -0.0709162 0.236625 -0.237699
1908 2 14.3647 11.57 14.0647 0.180734 -0.408998 0.667423 -0.854457
1909 2 17.4947 10.55 19.7047 0.212012 -0.248128 -0.144006 -0.376966
1910 2 22.1747 5.52 13.5547 0.183029 -0.544838 -0.0114305 -0.514614
1911 2 14.1747 11.85 22.2647 0.204137 -0.0844832 -0.535841 0.289322
1912 2 18.4647 1.57 15.1147 0.17257 0.700396 -0.752365 -0.238807
1913 2 21.7847 7.2 12.6547 0.198756 -0.392332 0.548771 -0.17683
1914 2 23.1547 6.56 20.4147 0.182266 -0.323123 -1.06154 1.28724
1915 2 14.3047 7.03 24.8147 0.189126 0.480666 -0.36892 -0.1467
1916 2 13.5247 9.16 23.0347 0.184945 -2.28758 -0.741723 -1.18024
1917 2 22.6347 12.39 20.5947 0.190646 0.843544 0.202277 0.02672
1918 2 13.3647 2.56 15.7247 0.175967 0.878413 -1.05619 2.45227
1919 2 21.7847 3.01 16.6147 0.20254 0.48386 0.40986 -0.157733
1920 2 13.5547 10.09 19.6547 0.213346 0.786981 0.73728 -0.312218
1921 1 11.83 15.0047 14.6247 -0.418491 0.276278 0.657274 -0.200467
1922 1 5.36 18.4447 14.2547 -0.356019 0.340911 0.424414 -0.894528
1923 1 12.17 19.7847 15.1547 -0.375673 0.108651 -0.210987 -1.85836
1924 1 3.38 16.7247 17.2847 -0.401224 0.921436 -0.302115 -0.574781
1925 1 4.54 24.1747 24.3447 -0.352542 1.21091 0.715022 0.323206
1926 1 7.34 12.6247 14.6247 -0.375671 -0.527856 1.2055 -1.95301
1927 1 5.73 22.3447 22.7547 -0.425659 0.260727 0.043818 0.365984
1928 1 5.32 23.6347 14.2747 -0.35229 -0.145277 -0.360964 0.00941161
1929 1 9.39 23.5847 13.5447 -0.384824 0.872338 -1.54209 -0.91855
1930 1 12.06 13.0847 21.3647 -0.432942 1.38582 0.308574 -1.86893
1931 1 5.01 20.1647 24.1847 -0.33121 1.05767 -0.0925126 -0.578517
1932 1 3.64 15.6347 13.5247 -0.329397 0.449005 1.35173 0.0296341
1933 1 11.88 23.3447 17.1447 -0.392604 0.205212 1.05597 -2.4539
1934 1 3.88 20.4947 14.9547 -0.464721 -0.268909 0.356012 0.230423
1935 1 9.82 21.6047 22.6247 -0.365583 0.339127 1.66955 0.487135
1936 1 11 17.7547 17.6147 -0.319962 0.138431 0.0561341 1.91458
1937 1 0.97 16.5647 13.2847 -0.355457 0.745165 0.775275 -0.737732
1938 1 1.24 18.4347 17.2047 -0.374759 -0.193306 0.928664 -0.3549
1939 1 10.1 21.5347 15.7647 -0.354105 0.910842 0.645134 -2.49248
1940 1 8.39 18.1647 22.8347 -0.373468 0.806784 -0.606248 -1.83734
1941 1 8.06 17.1647 13.7447 -0.36779 0.704095 -2.90774 -0.60736
1942 1 3.23 15.7847 20.7047 -0.401808 2.1381 -0.397577 -0.157472
1943 1 5.02 18.6547 19.7347 -0.410388 -0.430372 0.366379 -0.2648
1944 1 3.94 22.9947 16.3947 -0.402417 0.433448 0.317493 -0.058448
1945 1 6.25 17.0047 16.6547 -0.380616 -0.393407 -0.784991 -0.268436
1946 1 12.18 14.7947 23.5547 -0.382165 -0.847412 -0.742851 1.12304
1947 1 6.76 21.0147 16.5147 -0.403468 -1.14815 -0.761853 -0.553728
1948 1 5.87 18.2847 22.2347 -0.349097 -2.30362 0.637168 -0.272961
1949 1 2.18 19.3547 19.4347 -0.400385 -0.466049 0.744029 1.54716
1950 1 10.89 20.1347 19.2247 -0.350545 0.885451 0.57086 0.0353096
1951 1 8.03 16.7247 19.0147 -0.327247 0.482388 0.023049 -0.0798799
1952 1 5.29 14.3647 24.0047 -0.420459 -1.16673 0.352029 0.519745
1953 1 1.53 24.6047 15.8947 -0.410573 0.411228 -0.955769 0.467825
1954 1 2.04 17.9347 22.1547 -0.307415 -0.567466 1.07232 -2.10704
1955 1 6.66 21.4947 13.6547 -0.337037 -1.61834 -1.07733 -0.67022
1956 1 11.75 18.6247 23.4547 -0.375509 0.109201 0.0673546 -0.490545
1957 1 6.11 15.5147 20.4047 -0.386894 0.529735 -0.930081 -1.62598
1958 1 8.22 13.8247 21.8747 -0.395923 -0.580886 0.67769 -0.139498
1959 1 1.31 14.4647 19.5347 -0.381655 1.03092 0.0207525 1.57357
1960 1 9.48 14.5547 18.3647 -0.386544 -0.466572 -1.803 1.20747
1961 1 9.33 15.7847 23.4147 -0.415653 0.367206 -0.157089 0.177914
1962 1 1.31 20.9347 13.2547 -0.391659 -0.32487 -1.14428 0.312427
1963 1 11.25 15.9247 19.9547 -0.362952 -2.51322 0.883513 -0.600349
1964 1 11.7 12.7747 13.0447 -0.377211 -1.74599 -0.0721158 1.00756
1965 1 7.63 14.4847 12.7247 -0.388923 0.179827 0.44608 1.55235
1966 1 8.86 21.9647 19.8447 -0.387579 -0.342417 0.412126 -1.61057
1967 1 2.01 23.9847 19.3347 -0.409735 0.35273 -0.503175 0.166526
1968 1 8.02 23.7147 17.1047 -0.386294 -1.67356 -0.912997 -0.15569
1969 1 5.82 21.6247 20.1547 -0.322041 -1.62597 0.149806 0.939796
1970 1 8.11 23.6347 23.6647 -0.344452 0.363667 1.24914 -0.543964
1971 1 5.94 13.2847 18.3547 -0.430298 0.345395 0.00805607 0.132097
1972 1 1.88 24.1047 13.0847 -0.447611 -0.0496616 -0.64541 0.598364
1973 1 4.66 23.7247 19.1747 -0.350743 -0.30144 -0.466428 -1.15937
1974 1 10.32 18.7047 13.3347 -0.326364 0.996663 -0.777111 1.09355
1975 1 2.01 23.5147 22.7747 -0.382521 -0.874391 1.41951 0.876538
1976 1 5.36 14.5047 15.5847 -0.366243 -1.58904 1.40304 -0.800857
1977 1 8.56 20.0347 24.6147 -0.416319 -0.455297 -0.0905601 0.376114
1978 1 10.51 18.2547 21.1047 -0.394249 0.641335 1.4569 0.242611
1979 1 2.37 18.6747 24.5447 -0.416527 -0.1766 0.565282 1.08135
1980 1 0.3 21.2147 22.4947 -0.378106 1.90132 0.678165 1.19041
1981 1 9.47 24.5747 20.0147 -0.329557 -1.4044 0.150385 0.698078
1982 1 1.41 14.7647 16.6147 -0.409847 -0.897512 2.03049 -1.61841
1983 1 9.69 16.1347 16.0047 -0.385426 -0.312376 -0.0177813 0.00845245
1984 1 0.75 21.6647 19.8347 -0.389396 -0.0507532 -1.95375 0.371099
1985 2 11.09 15.3147 15.1847 0.191006 0.242646 0.249603 -0.242659
1986 2 5.51 17.9547 15.0447 0.193884 0.173011 -0.778963 1.257
1987 2 0.24 19.2447 15.7347 0.202655 0.689764 -0.383472 1.08408
1988 2 4.28 16.6347 16.9047 0.179041 -0.61783 0.498773 0.550843
1989 2 3.63 24.0047 24.2047 0.196223 -1.9257 -0.273378 -0.12946
1990 2 6.53 24.5147 14.4347 0.175621 -0.00357909 -0.0767582 0.0486965
1991 2 5.37 21.5847 23.2947 0.192166 0.344549 0.250861 -0.896864
1992 2 5.74 22.7547 14.0847 0.184005 0.0441693 0.251742 0.0828108
1993 2 8.71 23.5147 12.8547 0.17763 0.422523 -0.059091 -0.677255
1994 2 0.27 13.4847 20.7147 0.17344 -1.1238 -0.989659 0.443653
1995 2 5.46 19.5247 23.5947 0.180688 0.237311 0.26678 0.0568944
1996 2 3.84 16.6147 13.5047 0.193773 -0.430975 -1.59746 0.0114869
1997 2 11.55 22.6347 16.5947 0.193318 -0.344379 -0.238349 -0.19777
1998 2 3 20.6147 14.5847 0.185159 0.135054 -0.08157 -0.0868312
1999 2 9.53 22.4847 23.0047 0.183594 0.0381979 -1.1177 -0.571151
2000 2 11.18 17.2847 18.4947 0.169879 -0.438841 0.441045 -1.51322
2001 2 0.68 16.2047 24.8847 0.177372 -0.29155 -0.537401 -0.242294
2002 2 0.43 17.9547 17.3247 0.191064 -0.911683 -0.445063 0.172008
2003 2 9.51 21.9247 16.3847 0.198767 -0.777856 0.453467 0.709527
2004 2 9.08 18.3347 22.1247 0.183631 -0.873518 -0.131882 0.694446
2005 2 7.92 16.2747 13.2447 0.157297 -0.370779 1.9901 0.389996
2006 2 4.23 15.6647 20.6547 0.191193 -1.42391 0.140278 -0.00568117
2007 2 5.27 18.3447 20.6347 0.18637 0.231081 -0.0760045 -0.406506
2008 2 4.44 23.3447 15.5847 0.186774 -0.369913 -0.593141 0.691882
2009 2 6.93 17.0047 17.3347 0.1968 0.140634 0.23838 0.137514
2010 2 11.88 14.0547 24.1947 0.177225 0.613578 1.15345 -0.980065
2011 2 6.79 20.9847 15.5347 0.175368 0.0995757 0.218342 0.449138
2012 2 5.62 17.4347 22.5747 0.221123 0.00679713 -0.64404 0.236311
2013 2 3.09 19.1047 19.4247 0.191092 1.4339 -0.115647 0.191252
2014 2 11.73 20.6647 19.3047 0.191114 -0.600407 -0.543249 -0.0195818
2015 2 8.4 15.8947 18.6247 0.180758 0.299545 0.121739 0.376315
2016 2 4.64 14.8147 24.6047 0.183436 0.774023 -0.148328 -0.517218
2017 2 0.74 24.1347 16.3047 0.193332 1.24461 0.486258 -0.16509
2018 2 1.1 17.7447 22.1647 0.198266 -0.394045 -0.607502 0.476833
2019 2 7.54 21.5547 13.2747 0.192117 -0.0556694 -0.517784 -0.239859
2020 2 11.36 18.6447 24.3447 0.192143 -0.194149 -0.0569204 0.0439428
2021 2 5.85 14.6547 19.9747 0.183621 0.497811 1.05769 0.321695
2022 2 8.81 14.4547 22.3347 0.182685 0.0118082 -0.096899 -0.059488
2023 2 2.17 14.8747 19.9047 0.202487 -1.14914 -0.170399 -0.334915
2024 2 10.1 14.9747 18.9947 0.181258 0.112983 -0.135615 -0.230565
2025 2 9.07 16.7347 23.3547 0.184906 -0.265505 -0.504531 0.000993636
2026 2 0.64 20.5747 13.8947 0.199679 0.509375 0.674765 -0.308541
2027 2 11.12 16.6447 20.5847 0.202259 -0.183435 0.403149 0.312282
2028 2 11.03 24.4747 13.0247 0.195342 0.754059 1.17489 0.0467368
2029 2 6.83 14.2847 24.6347 0.187672 -0.296913 0.227219 0.205471
2030 2 9.13 22.8947 19.6947 0.185571 -0.160216 0.106211 -0.443084
2031 2 1.76 24.8847 19.2447 0.185591 -1.18374 1.35732 -0.0950324
2032 2 7.37 24.3247 17.5247 0.175798 0.637179 -0.474284 -0.169073
2033 2 5.59 20.7347 19.8847 0.218995 0.0580499 -0.600348 -0.182298
2034 2 8.14 24.5647 23.3047 0.195424 -0.210887 -1.20666 0.445456
2035 2 5.48 12.5047 18.7647 0.18894 0.122011 0.408553 -0.0842287
2036 2 0.99 24.4347 12.8547 0.187845 0.420677 0.0199717 0.498788
2037 2 4.54 23.3947 18.2347 0.183358 -0.016673 0.130501 0.932421
2038 2 10.94 18.7347 14.0947 0.201456 -0.027157 0.593446 -0.475454
2039 2 2.52 22.9947 22.2047 0.218255 1.17313 -0.879274 -1.41997
2040 2 4.74 14.8547 14.8647 0.184875 0.756463 -0.550817 1.19336
2041 2 8.84 20.7147 24.0047 0.185768 0.648327 0.253462 -0.371352
2042 2 10.89 18.5047 22.0247 0.177024 -0.149984 -0.450764 -1.36993
2043 2 2.15 18.4347 23.6247 0.183133 0.198181 0.153317 -0.208365
2044 2 0.49 21.5047 21.5747 0.170818 -0.195468 -0.175699 0.13314
2045 2 8.69 24.7847 20.5947 0.197812 0.866215 0.11805 -0.768183
2046 2 1.76 13.8847 16.5147 0.192692 -0.221692 -1.01335 -0.531417
2047 2 10.05 16.8847 16.5447 0.192316 -0.12598 -0.745355 -0.0156508
2048 2 1.44 20.9347 19.7647 0.197896 -0.576741 0.967129 -0.266637
2049 2 12.25 15.7647 14.1247 0.205745 -0.63771 -0.790007 0.707792
2050 2 6.27 18.6647 14.0047 0.19505 -0.288683 -0.18998 -0.310423
2051 2 11.5 20.2947 15.5847 0.211302 -0.832456 0.597935 0.813045
2052 2 2.96 15.8847 17.0547 0.180348 -0.533156 -0.0678946 0.0315808
2053 2 5.04 23.6147 23.7447 0.203952 0.12738 -0.381036 -0.585045
2054 2 7.6 24.8347 15.4747 0.186687 0.821768 -0.728631 2.61781
2055 2 5.94 22.1247 21.8147 0.201526 -0.668936 -0.412487 0.824156
2056 2 4.93 23.9047 13.4047 0.19224 -0.183065 0.0484411 -0.0612503
2057 2 8.92 24.1247 14.1347 0.18221 -0.842518 1.45769 1.60204
2058 2 12.07 13.8047 21.9847 0.171108 -0.388884 0.41817 1.32797
2059 2 4.17 19.7247 24.2447 0.187175 -1.26451 -0.132503 0.62188
2060 2 2.67 15.5347 13.4947 0.196792 0.335557 0.3282 0.0513108
2061 2 11.89 23.0347 18.0047 0.212694 0.132245 -0.756144 2.53351
2062 2 4.27 19.6747 14.6047 0.187744 0.0819575 0.0437301 -0.0145475
2063 2 10.8 21.6647 22.6247 0.189919 -0.381735 -0.312458 0.000712282
2064 2 10.68 18.6447 17.8847 0.199547 0.402556 -0.469572 -0.0890544
2065 2 1.51 17.3447 12.9747 0.18783 -0.395811 -0.206715 0.454047
2066 2 1.94 17.8047 17.0547 0.202921 1.01916 -0.676965 -0.246078
2067 2 10.02 22.0847 14.9147 0.193895 -0.0946672 -0.93463 1.59327
2068 2 8.41 18.8747 23.4847 0.181307 0.148154 0.822082 0.803431
2069 2 8.58 16.7347 14.4547 0.171346 -0.324567 0.68786 0.564207
2070 2 3.12 16.7247 20.8547 0.18604 -0.390219 -0.00352113 0.188237
2071 2 5.12 17.9847 19.0447 0.200549 0.113955 0.0926684 0.568069
2072 2 3.97 22.0247 16.3347 0.200319 -0.122316 0.404546 -0.363304
2073 2 6.17 16.0747 16.3447 0.180499 0.0639783 0.428596 0.0335346
2074 2 11.4 15.3647 23.4347 0.186121 0.0360218 -0.322511 0.130684
2075 2 5.96 20.4647 16.7047 0.206263 1.14918 0.802719 -0.019185
2076 2 6.81 18.3447 22.2747 0.201106 2.05205 -0.29683 0.21644
2077 2 1.83 19.0347 18.6047 0.187749 -0.772061 -0.352089 -1.05867
2078 2 10.19 20.8047 19.3247 0.185476 -0.393794 -0.00301301 -0.0332382
2079 2 8.74 17.1147 19.5647 0.196504 -0.744383 -0.329138 -0.44124
2080 2 4.84 13.5247 23.8247 0.193742 0.366903 -0.114308 0.0286761
2081 2 2.38 24.1547 16.1447 0.187953 -1.23536 0.033742 0.0339458
2082 2 2.02 18.5447 21.3647 0.193418 0.561643 -0.413307 0.789834
2083 2 6.05 20.9247 13.0547 0.185432 1.45641 0.977447 0.978236
2084 2 12.12 19.4947 23.2547 0.183183 0.124925 0.275254 0.11095
2085 2 6.81 15.9047 19.7547 0.173814 -1.21256 -0.276897 1.47211
2086 2 7.52 14.4347 21.5447 0.171167 0.337082 -0.725395 0.216956
2087 2 1.25 14.7047 18.6247 0.198333 -0.100624 0.23389 -1.44321
2088 2 9.31 13.6347 18.7947 0.177467 0.392013 1.8779 -1.00921
2089 2 8.84 15.3447 24.1347 0.189554 0.0720818 0.182771 -0.115998
2090 2 1.39 21.8847 13.2947 0.203751 -0.146576 0.597054 0.00257822
2091 2 12.13 15.6647 19.9447 0.198004 2.70528 -1.0304 0.0528927
2092 2 11.38 13.3947 13.7847 0.189016 1.08992 -0.904663 -1.35613
2093 2 7.43 14.2647 13.6847 0.192864 0.551761 -0.285859 -1.97595
2094 2 9.15 21.8747 20.7247 0.178035 0.44124 -0.710181 2.23727
2095 2 2.97 24.1047 19.3247 0.189438 0.458819 -0.880809 0.139719
2096 2 7.5 22.8747 16.9147 0.181809 0.703657 1.2892 0.431931
2097 2 6.69 21.8447 19.9147 0.206107 2.2719 -0.0386729 -0.808159
2098 2 7.29 23.2147 23.3747 0.190335 -0.34183 -0.0505464 -0.227429
2099 2 5.45 13.5147 17.5647 0.197986 -0.0709405 0.236633 -0.237731
2100 2 1.92 24.0147 14.0647 0.180733 -0.408999 0.667423 -0.854457
2101 2 5.05 22.9947 19.7047 0.212011 -0.248156 -0.143953 -0.376994
2102 2 9.73 17.9647 13.5547 0.183029 -0.544853 -0.0114459 -0.514614
2103 2 1.73 24.2947 22.2647 0.204137 -0.0844846 -0.535836 0.289315
2104 2 6.02 14.0147 15.1147 0.172569 0.700398 -0.752366 -0.238808
2105 2 9.34 19.6447 12.6547 0.198756 -0.39232 0.548777 -0.17683
2106 2 10.71 19.0047 20.4147 0.182266 -0.323128 -1.06155 1.28724
2107 2 1.86 19.4747 24.8147 0.189126 0.480674 -0.368938 -0.146706
2108 2 1.08 21.6047 23.0347 0.184944 -2.28758 -0.741726 -1.18024
2109 2 10.19 24.8347 20.5947 0.190645 0.843597 0.202295 0.0267627
2110 2 0.92 15.0047 15.7247 0.175967 0.878413 -1.05619 2.45227
2111 2 9.34 15.4547 16.6147 0.202541 0.483856 0.409856 -0.157727
2112 2 1.11 22.5347 19.6547 0.213347 0.786961 0.737239 -0.31221
2113 1 24.2747 15.0047 14.6247 -0.418491 0.276278 0.657274 -0.200468
2114 1 17.8047 18.4447 14.2547 -0.356018 0.340905 0.424424 -0.894537
2115 1 24.6147 19.7847 15.1547 -0.375673 0.108649 -0.210987 -1.85836
2116 1 15.8247 16.7247 17.2847 -0.401225 0.921452 -0.302116 -0.574789
2117 1 16.9847 24.1747 24.3447 -0.352542 1.21091 0.715023 0.323205
2118 1 19.7847 12.6247 14.6247 -0.375671 -0.527851 1.2055 -1.95301
2119 1 18.1747 22.3447 22.7547 -0.425659 0.260728 0.0438149 0.36598
2120 1 17.7647 23.6347 14.2747 -0.352291 -0.145265 -0.360975 0.00941634
2121 1 21.8347 23.5847 13.5447 -0.384824 0.872355 -1.54211 -0.918567
2122 1 24.5047 13.0847 21.3647 -0.432942 1.38584 0.308582 -1.86894
2123 1 17.4547 20.1647 24.1847 -0.331211 1.05765 -0.0925038 -0.578507
2124 1 16.0847 15.6347 13.5247 -0.329397 0.449042 1.35174 0.0296347
2125 1 24.3247 23.3447 17.1447 -0.392604 0.205212 1.05597 -2.4539
2126 1 16.3247 20.4947 14.9547 -0.464722 -0.268859 0.355984 0.230429
2127 1 22.2647 21.6047 22.6247 -0.365582 0.339092 1.66954 0.487136
2128 1 23.4447 17.7547 17.6147 -0.319962 0.138431 0.0561352 1.91458
2129 1 13.4147 16.5647 13.2847 -0.355457 0.745175 0.775288 -0.737736
2130 1 13.6847 18.4347 17.2047 -0.374759 -0.193333 0.928658 -0.354899
2131 1 22.5447 21.5347 15.7647 -0.354106 0.91084 0.645135 -2.49248
2132 1 20.8347 18.1647 22.8347 -0.373467 0.806802 -0.606241 -1.83736
2133 1 20.5047 17.1647 13.7447 -0.36779 0.704109 -2.90775 -0.607347
2134 1 15.6747 15.7847 20.7047 -0.401808 2.13811 -0.39758 -0.157473
2135 1 17.4647 18.6547 19.7347 -0.410389 -0.430375 0.366383 -0.2648
2136 1 16.3847 22.9947 16.3947 -0.402417 0.433443 0.317496 -0.058444
2137 1 18.6947 17.0047 16.6547 -0.380616 -0.393398 -0.78499 -0.268427
2138 1 24.6247 14.7947 23.5547 -0.382165 -0.847417 -0.742858 1.12304
2139 1 19.2047 21.0147 16.5147 -0.403469 -1.14818 -0.76187 -0.553722
2140 1 18.3147 18.2847 22.2347 -0.349097 -2.30359 0.63717 -0.272959
2141 1 14.6247 19.3547 19.4347 -0.400386 -0.465998 0.744016 1.54717
2142 1 23.3347 20.1347 19.2247 -0.350546 0.885525 0.570838 0.0353073
2143 1 20.4747 16.7247 19.0147 -0.327248 0.482353 0.0230525 -0.0798909
2144 1 17.7347 14.3647 24.0047 -0.42046 -1.16671 0.352042 0.51974
2145 1 13.9747 24.6047 15.8947 -0.410573 0.411234 -0.955771 0.467827
2146 1 14.4847 17.9347 22.1547 -0.307415 -0.567497 1.07231 -2.10704
2147 1 19.1047 21.4947 13.6547 -0.337037 -1.6184 -1.07734 -0.670214
2148 1 24.1947 18.6247 23.4547 -0.375509 0.109199 0.0673409 -0.490554
2149 1 18.5547 15.5147 20.4047 -0.386894 0.529723 -0.930084 -1.62597
2150 1 20.6647 13.8247 21.8747 -0.395923 -0.580854 0.677672 -0.139482
2151 1 13.7547 14.4647 19.5347 -0.381656 1.03093 0.020756 1.57357
2152 1 21.9247 14.5547 18.3647 -0.386544 -0.466576 -1.803 1.20747
2153 1 21.7747 15.7847 23.4147 -0.415653 0.367204 -0.157088 0.177914
2154 1 13.7547 20.9347 13.2547 -0.391659 -0.324871 -1.14428 0.31243
2155 1 23.6947 15.9247 19.9547 -0.362952 -2.51329 0.883534 -0.600346
2156 1 24.1447 12.7747 13.0447 -0.377211 -1.74596 -0.0720815 1.00756
2157 1 20.0747 14.4847 12.7247 -0.388924 0.179861 0.446092 1.55235
2158 1 21.3047 21.9647 19.8447 -0.387579 -0.342434 0.412107 -1.61057
2159 1 14.4547 23.9847 19.3347 -0.409735 0.352688 -0.503178 0.166525
2160 1 20.4647 23.7147 17.1047 -0.386294 -1.67358 -0.912981 -0.155681
2161 1 18.2647 21.6247 20.1547 -0.322041 -1.62592 0.149823 0.939783
2162 1 20.5547 23.6347 23.6647 -0.344451 0.363589 1.24911 -0.543992
2163 1 18.3847 13.2847 18.3547 -0.430297 0.345364 0.00805037 0.132073
2164 1 14.3247 24.1047 13.0847 -0.447611 -0.0496733 -0.645406 0.598363
2165 1 17.1047 23.7247 19.1747 -0.350743 -0.30145 -0.466418 -1.15938
2166 1 22.7647 18.7047 13.3347 -0.326365 0.996673 -0.777106 1.09356
2167 1 14.4547 23.5147 22.7747 -0.382521 -0.874409 1.41953 0.876552
2168 1 17.8047 14.5047 15.5847 -0.366244 -1.58905 1.40304 -0.800865
2169 1 21.0047 20.0347 24.6147 -0.416319 -0.455261 -0.0905585 0.376116
2170 1 22.9547 18.2547 21.1047 -0.394248 0.641323 1.45689 0.242609
2171 1 14.8147 18.6747 24.5447 -0.416526 -0.176608 0.56529 1.08135
2172 1 12.7447 21.2147 22.4947 -0.378106 1.90131 0.67816 1.19041
2173 1 21.9147 24.5747 20.0147 -0.329558 -1.4043 0.150395 0.698091
2174 1 13.8547 14.7647 16.6147 -0.409847 -0.89751 2.03048 -1.61841
2175 1 22.1347 16.1347 16.0047 -0.385426 -0.312397 -0.0178104 0.00844844
2176 1 13.1947 21.6647 19.8347 -0.389396 -0.0507667 -1.95375 0.371101
2177 2 23.5347 15.3147 15.1847 0.191006 0.242646 0.249604 -0.242658
2178 2 17.9547 17.9547 15.0447 0.193884 0.173015 -0.778968 1.25701
2179 2 12.6847 19.2447 15.7347 0.202655 0.689764 -0.383472 1.08408
2180 2 16.7247 16.6347 16.9047 0.179041 -0.617848 0.498774 0.550851
2181 2 16.0747 24.0047 24.2047 0.196223 -1.9257 -0.273379 -0.12946
2182 2 18.9747 24.5147 14.4347 0.175621 -0.00358769 -0.0767633 0.0486961
2183 2 17.8147 21.5847 23.2947 0.192167 0.344554 0.250865 -0.896867
2184 2 18.1847 22.7547 14.0847 0.184005 0.0441667 0.251748 0.0828137
2185 2 21.1547 23.5147 12.8547 0.17763 0.422522 -0.059089 -0.677252
2186 2 12.7147 13.4847 20.7147 0.17344 -1.12378 -0.98965 0.443639
2187 2 17.9047 19.5247 23.5947 0.180688 0.237327 0.266768 0.0568811
2188 2 16.2847 16.6147 13.5047 0.193774 -0.43098 -1.59746 0.0114875
2189 2 23.9947 22.6347 16.5947 0.193318 -0.344378 -0.23835 -0.197769
2190 2 15.4447 20.6147 14.5847 0.18516 0.135018 -0.0815667 -0.0868476
2191 2 21.9747 22.4847 23.0047 0.183595 0.0381884 -1.11769 -0.571148
2192 2 23.6247 17.2847 18.4947 0.169879 -0.438841 0.441047 -1.51323
2193 2 13.1247 16.2047 24.8847 0.177372 -0.291549 -0.537399 -0.242294
2194 2 12.8747 17.9547 17.3247 0.191063 -0.911665 -0.445052 0.172006
2195 2 21.9547 21.9247 16.3847 0.198767 -0.777856 0.453466 0.709527
2196 2 21.5247 18.3347 22.1247 0.18363 -0.873537 -0.131888 0.69446
2197 2 20.3647 16.2747 13.2447 0.157297 -0.370783 1.9901 0.389995
2198 2 16.6747 15.6647 20.6547 0.191194 -1.42391 0.140276 -0.00568131
2199 2 17.7147 18.3447 20.6347 0.18637 0.23108 -0.0760059 -0.406505
2200 2 16.8847 23.3447 15.5847 0.186774 -0.369913 -0.593143 0.691881
2201 2 19.3747 17.0047 17.3347 0.1968 0.140624 0.23838 0.137504
2202 2 24.3247 14.0547 24.1947 0.177225 0.613584 1.15346 -0.980071
2203 2 19.2347 20.9847 15.5347 0.175367 0.0995806 0.218343 0.449136
2204 2 18.0647 17.4347 22.5747 0.221124 0.00679729 -0.64404 0.23631
2205 2 15.5347 19.1047 19.4247 0.191092 1.43385 -0.115633 0.191254
2206 2 24.1747 20.6647 19.3047 0.191113 -0.600431 -0.543268 -0.0195846
2207 2 20.8447 15.8947 18.6247 0.180758 0.299555 0.12173 0.376313
2208 2 17.0847 14.8147 24.6047 0.183435 0.774015 -0.148327 -0.517213
2209 2 13.1847 24.1347 16.3047 0.193332 1.24461 0.486258 -0.16509
2210 2 13.5447 17.7447 22.1647 0.198265 -0.394016 -0.607498 0.476833
2211 2 19.9847 21.5547 13.2747 0.192117 -0.0556275 -0.517781 -0.239877
2212 2 23.8047 18.6447 24.3447 0.192143 -0.194157 -0.0569224 0.043957
2213 2 18.2947 14.6547 19.9747 0.183621 0.49781 1.05769 0.321695
2214 2 21.2547 14.4547 22.3347 0.182685 0.0118115 -0.0969022 -0.0594863
2215 2 14.6147 14.8747 19.9047 0.202487 -1.14915 -0.170401 -0.334916
2216 2 22.5447 14.9747 18.9947 0.181258 0.112982 -0.135618 -0.230566
2217 2 21.5147 16.7347 23.3547 0.184907 -0.265505 -0.504533 0.000994557
2218 2 13.0847 20.5747 13.8947 0.199679 0.509376 0.674766 -0.308543
2219 2 23.5647 16.6447 20.5847 0.20226 -0.18343 0.403145 0.312279
2220 2 23.4747 24.4747 13.0247 0.195342 0.754026 1.17486 0.0467366
2221 2 19.2747 14.2847 24.6347 0.187672 -0.296935 0.227213 0.205462
2222 2 21.5747 22.8947 19.6947 0.185571 -0.160207 0.106229 -0.443085
2223 2 14.2047 24.8847 19.2447 0.185591 -1.18374 1.35732 -0.0950318
2224 2 19.8147 24.3247 17.5247 0.175797 0.637198 -0.474297 -0.169082
2225 2 18.0347 20.7347 19.8847 0.218995 0.0580475 -0.600354 -0.1823
2226 2 20.5847 24.5647 23.3047 0.195424 -0.210878 -1.20665 0.445456
2227 2 17.9247 12.5047 18.7647 0.18894 0.122022 0.408563 -0.0842315
2228 2 13.4347 24.4347 12.8547 0.187844 0.420687 0.0199678 0.49879
2229 2 16.9847 23.3947 18.2347 0.183359 -0.016669 0.130503 0.932426
2230 2 23.3847 18.7347 14.0947 0.201456 -0.0271744 0.593445 -0.47547
2231 2 14.9647 22.9947 22.2047 0.218255 1.17314 -0.879288 -1.41999
2232 2 17.1847 14.8547 14.8647 0.184875 0.756474 -0.550823 1.19337
2233 2 21.2847 20.7147 24.0047 0.185769 0.648319 0.253452 -0.371344
2234 2 23.3347 18.5047 22.0247 0.177024 -0.149975 -0.45076 -1.36993
2235 2 14.5947 18.4347 23.6247 0.183133 0.198183 0.153316 -0.208364
2236 2 12.9347 21.5047 21.5747 0.170818 -0.195466 -0.175697 0.133137
2237 2 21.1347 24.7847 20.5947 0.197812 0.866167 0.118061 -0.768151
2238 2 14.2047 13.8847 16.5147 0.192692 -0.221695 -1.01335 -0.531417
2239 2 22.4947 16.8847 16.5447 0.192315 -0.125968 -0.745338 -0.0156398
2240 2 13.8847 20.9347 19.7647 0.197896 -0.57673 0.967122 -0.266639
2241 2 24.6947 15.7647 14.1247 0.205745 -0.63771 -0.790007 0.707792
2242 2 18.7147 18.6647 14.0047 0.195051 -0.288683 -0.189983 -0.31042
2243 2 23.9447 20.2947 15.5847 0.211302 -0.832455 0.597933 0.813045
2244 2 15.4047 15.8847 17.0547 0.180348 -0.533154 -0.0678936 0.0315813
2245 2 17.4847 23.6147 23.7447 0.203951 0.12738 -0.381036 -0.585046
2246 2 20.0447 24.8347 15.4747 0.186688 0.821767 -0.72863 2.6178
2247 2 18.3847 22.1247 21.8147 0.201527 -0.66894 -0.412487 0.824162
2248 2 17.3747 23.9047 13.4047 0.19224 -0.183073 0.0484447 -0.0612579
2249 2 21.3647 24.1247 14.1347 0.18221 -0.842532 1.45771 1.60206
2250 2 24.5147 13.8047 21.9847 0.171108 -0.388886 0.418172 1.32798
2251 2 16.6147 19.7247 24.2447 0.187175 -1.26451 -0.132501 0.621883
2252 2 15.1147 15.5347 13.4947 0.196793 0.335525 0.328198 0.0513102
2253 2 24.3347 23.0347 18.0047 0.212694 0.132244 -0.756143 2.53351
2254 2 16.7147 19.6747 14.6047 0.187745 0.0819459 0.0437502 -0.0145389
2255 2 23.2447 21.6647 22.6247 0.189919 -0.38169 -0.312461 0.000709577
2256 2 23.1247 18.6447 17.8847 0.199547 0.402556 -0.469572 -0.0890545
2257 2 13.9547 17.3447 12.9747 0.18783 -0.395823 -0.206728 0.45405
2258 2 14.3847 17.8047 17.0547 0.202921 1.01916 -0.676971 -0.246078
2259 2 22.4647 22.0847 14.9147 0.193895 -0.094667 -0.934631 1.59327
2260 2 20.8547 18.8747 23.4847 0.181307 0.148152 0.822081 0.803432
2261 2 21.0247 16.7347 14.4547 0.171346 -0.324577 0.687869 0.564195
2262 2 15.5647 16.7247 20.8547 0.18604 -0.390222 -0.0035176 0.188238
2263 2 17.5647 17.9847 19.0447 0.200549 0.113958 0.092666 0.568066
2264 2 16.4147 22.0247 16.3347 0.200319 -0.122313 0.404546 -0.363305
2265 2 18.6147 16.0747 16.3447 0.180499 0.0639795 0.428596 0.0335348
2266 2 23.8447 15.3647 23.4347 0.18612 0.0360217 -0.322509 0.130683
2267 2 18.4047 20.4647 16.7047 0.206262 1.14921 0.802736 -0.0191876
2268 2 19.2547 18.3447 22.2747 0.201106 2.05203 -0.296832 0.21644
2269 2 14.2747 19.0347 18.6047 0.187749 -0.772063 -0.352091 -1.05867
2270 2 22.6347 20.8047 19.3247 0.185475 -0.39384 -0.00297523 -0.0332332
2271 2 21.1847 17.1147 19.5647 0.196504 -0.74436 -0.329131 -0.441227
2272 2 17.2847 13.5247 23.8247 0.193742 0.36689 -0.114323 0.0286738
2273 2 14.8247 24.1547 16.1447 0.187953 -1.23536 0.0337448 0.0339442
2274 2 14.4647 18.5447 21.3647 0.193418 0.561646 -0.413307 0.789833
2275 2 18.4947 20.9247 13.0547 0.185433 1.45642 0.977457 0.978246
2276 2 24.5647 19.4947 23.2547 0.183183 0.124934 0.275269 0.110944
2277 2 19.2547 15.9047 19.7547 0.173814 -1.21255 -0.276892 1.4721
2278 2 19.9647 14.4347 21.5447 0.171168 0.337048 -0.725373 0.21694
2279 2 13.6947 14.7047 18.6247 0.198333 -0.100625 0.233891 -1.44321
2280 2 21.7547 13.6347 18.7947 0.177467 0.392018 1.8779 -1.00921
2281 2 21.2847 15.3447 24.1347 0.189554 0.0720818 0.182771 -0.115999
2282 2 13.8347 21.8847 13.2947 0.203751 -0.146576 0.597056 0.00257721
2283 2 24.5747 15.6647 19.9447 0.198004 2.70534 -1.03042 0.0528948
2284 2 23.8247 13.3947 13.7847 0.189016 1.08992 -0.904664 -1.35613
2285 2 19.8747 14.2647 13.6847 0.192864 0.551752 -0.285863 -1.97595
2286 2 21.5947 21.8747 20.7247 0.178035 0.441244 -0.71018 2.23728
2287 2 15.4147 24.1047 19.3247 0.189438 0.458861 -0.880806 0.139719
2288 2 19.9447 22.8747 16.9147 0.181809 0.703659 1.2892 0.43193
2289 2 19.1347 21.8447 19.9147 0.206107 2.27185 -0.0386842 -0.808145
2290 2 19.7347 23.2147 23.3747 0.190335 -0.341764 -0.0505195 -0.227404
2291 2 17.8947 13.5147 17.5647 0.197986 -0.070919 0.236627 -0.237704
2292 2 14.3647 24.0147 14.0647 0.180734 -0.408999 0.667423 -0.854458
2293 2 17.4947 22.9947 19.7047 0.212012 -0.248147 -0.143963 -0.376986
2294 2 22.1747 17.9647 13.5547 0.183029 -0.544849 -0.0114448 -0.514611
2295 2 14.1747 24.2947 22.2647 0.204137 -0.0844813 -0.535844 0.289319
2296 2 18.4647 14.0147 15.1147 0.172569 0.700398 -0.752367 -0.238809
2297 2 21.7847 19.6447 12.6547 0.198756 -0.392339 0.54878 -0.176837
2298 2 23.1547 19.0047 20.4147 0.182266 -0.323123 -1.06154 1.28724
2299 2 14.3047 19.4747 24.8147 0.189126 0.48068 -0.368946 -0.146708
2300 2 13.5247 21.6047 23.0347 0.184945 -2.28758 -0.741723 -1.18024
2301 2 22.6347 24.8347 20.5947 0.190646 0.843543 0.202276 0.0267183
2302 2 13.3647 15.0047 15.7247 0.175967 0.878413 -1.05619 2.45227
2303 2 21.7847 15.4547 16.6147 0.202541 0.483863 0.409867 -0.157737
2304 2 13.5547 22.5347 19.6547 0.213347 0.786964 0.73724 -0.31221
2305 1 11.83 27.4494 14.6247 -0.418491 0.276291 0.657267 -0.200474
2306 1 5.36 30.8894 14.2547 -0.356019 0.340911 0.424415 -0.894529
2307 1 12.17 32.2294 15.1547 -0.375672 0.10869 -0.211016 -1.85838
2308 1 3.38 29.1694 17.2847 -0.401225 0.921451 -0.30208 -0.57477
2309 1 4.54 36.6194 24.3447 -0.352542 1.21096 0.714996 0.323181
2310 1 7.34 25.0694 14.6247 -0.375672 -0.527862 1.20547 -1.95298
2311 1 5.73 34.7894 22.7547 -0.42566 0.260745 0.0438821 0.365975
2312 1 5.32 36.0794 14.2747 -0.352291 -0.145339 -0.360844 0.0094115
2313 1 9.39 36.0294 13.5447 -0.384824 0.872341 -1.5421 -0.918554
2314 1 12.06 25.5294 21.3647 -0.432942 1.38582 0.30854 -1.86894
2315 1 5.01 32.6094 24.1847 -0.33121 1.0576 -0.0926106 -0.578544
2316 1 3.64 28.0794 13.5247 -0.329396 0.449014 1.35177 0.0296333
2317 1 11.88 35.7894 17.1447 -0.392605 0.205214 1.05599 -2.45395
2318 1 3.88 32.9394 14.9547 -0.464721 -0.268906 0.356005 0.230421
2319 1 9.82 34.0494 22.6247 -0.365582 0.339122 1.66961 0.48716
2320 1 11 30.1994 17.6147 -0.319962 0.13843 0.0561291 1.91458
2321 1 0.97 29.0094 13.2847 -0.355457 0.745164 0.775275 -0.737732
2322 1 1.24 30.8794 17.2047 -0.374759 -0.193258 0.928616 -0.354911
2323 1 10.1 33.9794 15.7647 -0.354105 0.910842 0.645131 -2.49248
2324 1 8.39 30.6094 22.8347 -0.373467 0.806786 -0.606247 -1.83734
2325 1 8.06 29.6094 13.7447 -0.36779 0.704095 -2.90774 -0.607361
2326 1 3.23 28.2294 20.7047 -0.401808 2.13812 -0.397668 -0.157485
2327 1 5.02 31.0994 19.7347 -0.410389 -0.430372 0.366376 -0.2648
2328 1 3.94 35.4394 16.3947 -0.402417 0.433442 0.317389 -0.0584413
2329 1 6.25 29.4494 16.6547 -0.380616 -0.393406 -0.78499 -0.268436
2330 1 12.18 27.2394 23.5547 -0.382165 -0.847398 -0.742901 1.12306
2331 1 6.76 33.4594 16.5147 -0.403468 -1.14814 -0.761848 -0.553722
2332 1 5.87 30.7294 22.2347 -0.349097 -2.30361 0.637168 -0.272958
2333 1 2.18 31.7994 19.4347 -0.400384 -0.466055 0.744034 1.54716
2334 1 10.89 32.5794 19.2247 -0.350544 0.885474 0.57096 0.0353243
2335 1 8.03 29.1694 19.0147 -0.327248 0.482399 0.0230977 -0.079848
2336 1 5.29 26.8094 24.0047 -0.42046 -1.16673 0.352015 0.519736
2337 1 1.53 37.0494 15.8947 -0.410573 0.411201 -0.9558 0.467839
2338 1 2.04 30.3794 22.1547 -0.307416 -0.567469 1.07232 -2.10704
2339 1 6.66 33.9394 13.6547 -0.337037 -1.61833 -1.07733 -0.670225
2340 1 11.75 31.0694 23.4547 -0.375509 0.1092 0.0673552 -0.490546
2341 1 6.11 27.9594 20.4047 -0.386894 0.52972 -0.930116 -1.62599
2342 1 8.22 26.2694 21.8747 -0.395923 -0.580888 0.677729 -0.139493
2343 1 1.31 26.9094 19.5347 -0.381655 1.03092 0.0207436 1.57358
2344 1 9.48 26.9994 18.3647 -0.386544 -0.46657 -1.803 1.20747
2345 1 9.33 28.2294 23.4147 -0.415653 0.367205 -0.157087 0.177914
2346 1 1.31 33.3794 13.2547 -0.391658 -0.324848 -1.14424 0.312408
2347 1 11.25 28.3694 19.9547 -0.362952 -2.51322 0.883515 -0.600348
2348 1 11.7 25.2194 13.0447 -0.37721 -1.74598 -0.072107 1.00755
2349 1 7.63 26.9294 12.7247 -0.388924 0.179837 0.44609 1.55234
2350 1 8.86 34.4094 19.8447 -0.387579 -0.342393 0.412201 -1.61058
2351 1 2.01 36.4294 19.3347 -0.409736 0.352782 -0.503383 0.166546
2352 1 8.02 36.1594 17.1047 -0.386294 -1.67358 -0.912967 -0.15567
2353 1 5.82 34.0694 20.1547 -0.322041 -1.62596 0.149874 0.939826
2354 1 8.11 36.0794 23.6647 -0.344451 0.363703 1.24923 -0.54398
2355 1 5.94 25.7294 18.3547 -0.430298 0.345395 0.00805988 0.132096
2356 1 1.88 36.5494 13.0847 -0.447611 -0.0496356 -0.645424 0.598372
2357 1 4.66 36.1694 19.1747 -0.350744 -0.301467 -0.466353 -1.15935
2358 1 10.32 31.1494 13.3347 -0.326365 0.996665 -0.777107 1.09355
2359 1 2.01 35.9594 22.7747 -0.382521 -0.874369 1.41945 0.87657
2360 1 5.36 26.9494 15.5847 -0.366244 -1.58904 1.40304 -0.800857
2361 1 8.56 32.4794 24.6147 -0.416319 -0.455307 -0.0905489 0.376099
2362 1 10.51 30.6994 21.1047 -0.394249 0.641334 1.4569 0.242618
2363 1 2.37 31.1194 24.5447 -0.416526 -0.176567 0.565229 1.08133
2364 1 0.3 33.6594 22.4947 -0.378106 1.90132 0.678174 1.19039
2365 1 9.47 37.0194 20.0147 -0.329557 -1.40442 0.150355 0.698051
2366 1 1.41 27.2094 16.6147 -0.409847 -0.897497 2.03044 -1.61841
2367 1 9.69 28.5794 16.0047 -0.385426 -0.312353 -0.0177357 0.00842923
2368 1 0.75 34.1094 19.8347 -0.389395 -0.0507375 -1.95391 0.371112
2369 2 11.09 27.7594 15.1847 0.191007 0.242635 0.24961 -0.242652
2370 2 5.51 30.3994 15.0447 0.193884 0.173011 -0.778964 1.257
2371 2 0.24 31.6894 15.7347 0.202655 0.689767 -0.383475 1.08408
2372 2 4.28 29.0794 16.9047 0.179041 -0.617831 0.498774 0.550843
2373 2 3.63 36.4494 24.2047 0.196223 -1.92572 -0.273383 -0.129464
2374 2 6.53 36.9594 14.4347 0.175621 -0.00359624 -0.0767783 0.0486987
2375 2 5.37 34.0294 23.2947 0.192166 0.34453 0.250814 -0.896843
2376 2 5.74 35.1994 14.0847 0.184006 0.044212 0.251636 0.0827889
2377 2 8.71 35.9594 12.8547 0.17763 0.422522 -0.0590919 -0.677252
2378 2 0.27 25.9294 20.7147 0.17344 -1.12379 -0.989649 0.443647
2379 2 5.46 31.9694 23.5947 0.180688 0.237299 0.266821 0.0569217
2380 2 3.84 29.0594 13.5047 0.193772 -0.430978 -1.59749 0.0114878
2381 2 11.55 35.0794 16.5947 0.193319 -0.344379 -0.23835 -0.197763
2382 2 3 33.0594 14.5847 0.185159 0.135045 -0.0815628 -0.0868313
2383 2 9.53 34.9294 23.0047 0.183595 0.0382029 -1.11775 -0.571172
2384 2 11.18 29.7294 18.4947 0.169879 -0.438841 0.441046 -1.51323
2385 2 0.68 28.6494 24.8847 0.177371 -0.29155 -0.537401 -0.242295
2386 2 0.43 30.3994 17.3247 0.191063 -0.911685 -0.44506 0.172009
2387 2 9.51 34.3694 16.3847 0.198767 -0.777857 0.453469 0.709527
2388 2 9.08 30.7794 22.1247 0.183631 -0.873518 -0.131882 0.694445
2389 2 7.92 28.7194 13.2447 0.157297 -0.370778 1.9901 0.389997
2390 2 4.23 28.1094 20.6547 0.191194 -1.42391 0.140278 -0.00568159
2391 2 5.27 30.7894 20.6347 0.18637 0.23108 -0.0760037 -0.406508
2392 2 4.44 35.7894 15.5847 0.186774 -0.369905 -0.593126 0.691869
2393 2 6.93 29.4494 17.3347 0.1968 0.140634 0.238379 0.137513
2394 2 11.88 26.4994 24.1947 0.177225 0.613587 1.15349 -0.980087
2395 2 6.79 33.4294 15.5347 0.175367 0.0995712 0.218336 0.449135
2396 2 5.62 29.8794 22.5747 0.221123 0.00679699 -0.64404 0.23631
2397 2 3.09 31.5494 19.4247 0.191091 1.4339 -0.115646 0.191252
2398 2 11.73 33.1094 19.3047 0.191113 -0.600457 -0.5433 -0.0195878
2399 2 8.4 28.3394 18.6247 0.180759 0.299559 0.121712 0.376304
2400 2 4.64 27.2594 24.6047 0.183435 0.774014 -0.148314 -0.517207
2401 2 0.74 36.5794 16.3047 0.193332 1.24464 0.48628 -0.165106
2402 2 1.1 30.1894 22.1647 0.198266 -0.394043 -0.607502 0.476834
2403 2 7.54 33.9994 13.2747 0.192116 -0.0556721 -0.517784 -0.239858
2404 2 11.36 31.0894 24.3447 0.192143 -0.194149 -0.0569203 0.0439442
2405 2 5.85 27.0994 19.9747 0.183621 0.497818 1.05772 0.321708
2406 2 8.81 26.8994 22.3347 0.182684 0.0117957 -0.0969191 -0.0594987
2407 2 2.17 27.3194 19.9047 0.202487 -1.14914 -0.170398 -0.334916
2408 2 10.1 27.4194 18.9947 0.181258 0.112981 -0.135617 -0.230567
2409 2 9.07 29.1794 23.3547 0.184907 -0.265505 -0.504533 0.000993572
2410 2 0.64 33.0194 13.8947 0.199679 0.509345 0.674731 -0.308516
2411 2 11.12 29.0894 20.5847 0.202259 -0.183435 0.403149 0.312282
2412 2 11.03 36.9194 13.0247 0.195342 0.754091 1.17494 0.0467426
2413 2 6.83 26.7294 24.6347 0.187672 -0.296917 0.227216 0.20547
2414 2 9.13 35.3394 19.6947 0.185572 -0.160235 0.106138 -0.44307
2415 2 1.76 37.3294 19.2447 0.185592 -1.18379 1.35752 -0.0950533
2416 2 7.37 36.7694 17.5247 0.175797 0.637204 -0.474318 -0.169092
2417 2 5.59 33.1794 19.8847 0.218995 0.0580212 -0.600433 -0.182321
2418 2 8.14 37.0094 23.3047 0.195424 -0.210887 -1.20672 0.44548
2419 2 5.48 24.9494 18.7647 0.188941 0.122011 0.408552 -0.0842285
2420 2 0.99 36.8794 12.8547 0.187845 0.420651 0.019986 0.498779
2421 2 4.54 35.8394 18.2347 0.183359 -0.0166723 0.130468 0.932391
2422 2 10.94 31.1794 14.0947 0.201455 -0.0271573 0.593444 -0.475455
2423 2 2.52 35.4394 22.2047 0.218255 1.17313 -0.879277 -1.41996
2424 2 4.74 27.2994 14.8647 0.184875 0.756462 -0.550817 1.19336
2425 2 8.84 33.1594 24.0047 0.185769 0.648323 0.253465 -0.371353
2426 2 10.89 30.9494 22.0247 0.177024 -0.149983 -0.450764 -1.36993
2427 2 2.15 30.8794 23.6247 0.183133 0.198181 0.153316 -0.208365
2428 2 0.49 33.9494 21.5747 0.170817 -0.195473 -0.175708 0.133157
2429 2 8.69 37.2294 20.5947 0.197812 0.866207 0.11806 -0.768174
2430 2 1.76 26.3294 16.5147 0.192691 -0.22171 -1.01331 -0.531414
2431 2 10.05 29.3294 16.5447 0.192315 -0.12598 -0.745352 -0.015657
2432 2 1.44 33.3794 19.7647 0.197896 -0.576796 0.967201 -0.266633
2433 2 12.25 28.2094 14.1247 0.205745 -0.637712 -0.790006 0.707793
2434 2 6.27 31.1094 14.0047 0.195051 -0.288683 -0.18998 -0.310422
2435 2 11.5 32.7394 15.5847 0.211302 -0.832499 0.597966 0.81307
2436 2 2.96 28.3294 17.0547 0.180348 -0.533173 -0.0679284 0.0315714
2437 2 5.04 36.0594 23.7447 0.203952 0.12735 -0.381007 -0.585015
2438 2 7.6 37.2794 15.4747 0.186687 0.821772 -0.728638 2.61783
2439 2 5.94 34.5694 21.8147 0.201526 -0.668936 -0.412499 0.824143
2440 2 4.93 36.3494 13.4047 0.19224 -0.183058 0.0484305 -0.0612346
2441 2 8.92 36.5694 14.1347 0.18221 -0.84252 1.45769 1.60204
2442 2 12.07 26.2494 21.9847 0.171108 -0.388882 0.418199 1.32799
2443 2 4.17 32.1694 24.2447 0.187175 -1.26443 -0.132453 0.621881
2444 2 2.67 27.9794 13.4947 0.196792 0.335551 0.328195 0.0513113
2445 2 11.89 35.4794 18.0047 0.212694 0.132243 -0.756158 2.53355
2446 2 4.27 32.1194 14.6047 0.187744 0.0819637 0.04373 -0.0145439
2447 2 10.8 34.1094 22.6247 0.18992 -0.381737 -0.312468 0.00070939
2448 2 10.68 31.0894 17.8847 0.199547 0.402556 -0.469571 -0.0890545
2449 2 1.51 29.7894 12.9747 0.18783 -0.395811 -0.206716 0.454047
2450 2 1.94 30.2494 17.0547 0.202921 1.01911 -0.67692 -0.246067
2451 2 10.02 34.5294 14.9147 0.193894 -0.094668 -0.934628 1.59327
2452 2 8.41 31.3194 23.4847 0.181308 0.148154 0.822081 0.803432
2453 2 8.58 29.1794 14.4547 0.171346 -0.324568 0.687859 0.564206
2454 2 3.12 29.1694 20.8547 0.18604 -0.39023 -0.0034268 0.188251
2455 2 5.12 30.4294 19.0447 0.200549 0.113955 0.0926687 0.568069
2456 2 3.97 34.4694 16.3347 0.200318 -0.122321 0.404636 -0.363295
2457 2 6.17 28.5194 16.3447 0.180499 0.0639784 0.428596 0.0335342
2458 2 11.4 27.8094 23.4347 0.186121 0.0359993 -0.322496 0.130681
2459 2 5.96 32.9094 16.7047 0.206263 1.14918 0.802719 -0.0191901
2460 2 6.81 30.7894 22.2747 0.201106 2.05204 -0.29683 0.216439
2461 2 1.83 31.4794 18.6047 0.187749 -0.772061 -0.352091 -1.05867
2462 2 10.19 33.2494 19.3247 0.185475 -0.393765 -0.00305862 -0.0332448
2463 2 8.74 29.5594 19.5647 0.196504 -0.744407 -0.329157 -0.441262
2464 2 4.84 25.9694 23.8247 0.193742 0.366906 -0.114308 0.0286732
2465 2 2.38 36.5994 16.1447 0.187953 -1.23535 0.0337451 0.0339431
2466 2 2.02 30.9894 21.3647 0.193418 0.561645 -0.413309 0.789834
2467 2 6.05 33.3694 13.0547 0.185432 1.45641 0.977448 0.978239
2468 2 12.12 31.9394 23.2547 0.183183 0.124925 0.275254 0.11095
2469 2 6.81 28.3494 19.7547 0.173814 -1.21256 -0.276891 1.47211
2470 2 7.52 26.8794 21.5447 0.171167 0.337095 -0.725413 0.216961
2471 2 1.25 27.1494 18.6247 0.198333 -0.100624 0.233894 -1.44322
2472 2 9.31 26.0794 18.7947 0.177467 0.392014 1.8779 -1.00921
2473 2 8.84 27.7894 24.1347 0.189554 0.0720804 0.182769 -0.115998
2474 2 1.39 34.3294 13.2947 0.203751 -0.146567 0.597057 0.00257096
2475 2 12.13 28.1094 19.9447 0.198004 2.70528 -1.0304 0.0528927
2476 2 11.38 25.8394 13.7847 0.189016 1.08992 -0.904648 -1.35612
2477 2 7.43 26.7094 13.6847 0.192864 0.551758 -0.285863 -1.97594
2478 2 9.15 34.3194 20.7247 0.178035 0.44124 -0.710179 2.23727
2479 2 2.97 36.5494 19.3247 0.189438 0.458822 -0.880801 0.139718
2480 2 7.5 35.3194 16.9147 0.181809 0.703653 1.28921 0.431934
2481 2 6.69 34.2894 19.9147 0.206108 2.27193 -0.0386606 -0.808166
2482 2 7.29 35.6594 23.3747 0.190335 -0.341863 -0.050568 -0.227438
2483 2 5.45 25.9594 17.5647 0.197987 -0.0709395 0.236634 -0.237732
2484 2 1.92 36.4594 14.0647 0.180733 -0.408998 0.667423 -0.854456
2485 2 5.05 35.4394 19.7047 0.212012 -0.248138 -0.143995 -0.376979
2486 2 9.73 30.4094 13.5547 0.183029 -0.544854 -0.0114459 -0.514615
2487 2 1.73 36.7394 22.2647 0.204137 -0.084509 -0.535773 0.28928
2488 2 6.02 26.4594 15.1147 0.172569 0.700398 -0.752366 -0.238808
2489 2 9.34 32.0894 12.6547 0.198757 -0.392305 0.548759 -0.176818
2490 2 10.71 31.4494 20.4147 0.182266 -0.323126 -1.06155 1.28724
2491 2 1.86 31.9194 24.8147 0.189126 0.480643 -0.368886 -0.146689
2492 2 1.08 34.0494 23.0347 0.184945 -2.28758 -0.741726 -1.18024
2493 2 10.19 37.2794 20.5947 0.190646 0.843617 0.202305 0.0267811
2494 2 0.92 27.4494 15.7247 0.175967 0.878415 -1.05619 2.45227
2495 2 9.34 27.8994 16.6147 0.202541 0.483834 0.409812 -0.157698
2496 2 1.11 34.9794 19.6547 0.213346 0.786997 0.737311 -0.312227
2497 1 24.2747 27.4494 14.6247 -0.418491 0.276289 0.657265 -0.200477
2498 1 17.8047 30.8894 14.2547 -0.356018 0.340905 0.424422 -0.894536
2499 1 24.6147 32.2294 15.1547 -0.375673 0.108687 -0.211016 -1.85838
2500 1 15.8247 29.1694 17.2847 -0.401225 0.921468 -0.302081 -0.574779
2501 1 16.9847 36.6194 24.3447 -0.352542 1.21096 0.714991 0.323178
2502 1 19.7847 25.0694 14.6247 -0.375672 -0.527854 1.20548 -1.95298
2503 1 18.1747 34.7894 22.7547 -0.42566 0.260745 0.0438786 0.36597
2504 1 17.7647 36.0794 14.2747 -0.352291 -0.145326 -0.360854 0.00942001
2505 1 21.8347 36.0294 13.5447 -0.384824 0.872356 -1.54211 -0.918569
2506 1 24.5047 25.5294 21.3647 -0.432941 1.38583 0.308546 -1.86895
2507 1 17.4547 32.6094 24.1847 -0.33121 1.05759 -0.0926017 -0.578534
2508 1 16.0847 28.0794 13.5247 -0.329395 0.449054 1.35178 0.0296355
2509 1 24.3247 35.7894 17.1447 -0.392605 0.205215 1.05599 -2.45395
2510 1 16.3247 32.9394 14.9547 -0.464721 -0.268851 0.355978 0.230431
2511 1 22.2647 34.0494 22.6247 -0.365582 0.339088 1.6696 0.487159
2512 1 23.4447 30.1994 17.6147 -0.319963 0.138428 0.0561306 1.91458
2513 1 13.4147 29.0094 13.2847 -0.355457 0.745176 0.775289 -0.737734
2514 1 13.6847 30.8794 17.2047 -0.374759 -0.193283 0.928611 -0.354907
2515 1 22.5447 33.9794 15.7647 -0.354105 0.910839 0.645132 -2.49248
2516 1 20.8347 30.6094 22.8347 -0.373467 0.806802 -0.60624 -1.83736
2517 1 20.5047 29.6094 13.7447 -0.36779 0.704109 -2.90775 -0.607346
2518 1 15.6747 28.2294 20.7047 -0.401808 2.13812 -0.39767 -0.157486
2519 1 17.4647 31.0994 19.7347 -0.410389 -0.430377 0.366382 -0.264799
2520 1 16.3847 35.4394 16.3947 -0.402417 0.433439 0.317389 -0.0584368
2521 1 18.6947 29.4494 16.6547 -0.380616 -0.393398 -0.784991 -0.268428
2522 1 24.6247 27.2394 23.5547 -0.382165 -0.847406 -0.742909 1.12307
2523 1 19.2047 33.4594 16.5147 -0.403468 -1.14817 -0.761866 -0.553717
2524 1 18.3147 30.7294 22.2347 -0.349097 -2.30359 0.637168 -0.272956
2525 1 14.6247 31.7994 19.4347 -0.400385 -0.466003 0.744021 1.54717
2526 1 23.3347 32.5794 19.2247 -0.350544 0.885548 0.57094 0.0353206
2527 1 20.4747 29.1694 19.0147 -0.327248 0.48236 0.0230998 -0.0798623
2528 1 17.7347 26.8094 24.0047 -0.42046 -1.1667 0.352031 0.519731
2529 1 13.9747 37.0494 15.8947 -0.410573 0.411208 -0.955804 0.467841
2530 1 14.4847 30.3794 22.1547 -0.307416 -0.5675 1.07231 -2.10704
2531 1 19.1047 33.9394 13.6547 -0.337037 -1.61839 -1.07734 -0.670215
2532 1 24.1947 31.0694 23.4547 -0.375509 0.109199 0.0673397 -0.490555
2533 1 18.5547 27.9594 20.4047 -0.386894 0.529704 -0.930121 -1.62598
2534 1 20.6647 26.2694 21.8747 -0.395923 -0.580856 0.67771 -0.139477
2535 1 13.7547 26.9094 19.5347 -0.381656 1.03093 0.0207507 1.57358
2536 1 21.9247 26.9994 18.3647 -0.386544 -0.466574 -1.803 1.20747
2537 1 21.7747 28.2294 23.4147 -0.415653 0.367203 -0.15709 0.177915
2538 1 13.7547 33.3794 13.2547 -0.391658 -0.324848 -1.14424 0.312409
2539 1 23.6947 28.3694 19.9547 -0.362952 -2.51329 0.883533 -0.600346
2540 1 24.1447 25.2194 13.0447 -0.377211 -1.74594 -0.0720738 1.00755
2541 1 20.0747 26.9294 12.7247 -0.388924 0.179871 0.4461 1.55235
2542 1 21.3047 34.4094 19.8447 -0.387579 -0.342412 0.41218 -1.61059
2543 1 14.4547 36.4294 19.3347 -0.409736 0.352743 -0.503389 0.166547
2544 1 20.4647 36.1594 17.1047 -0.386294 -1.6736 -0.912948 -0.155661
2545 1 18.2647 34.0694 20.1547 -0.322041 -1.62591 0.149888 0.939811
2546 1 20.5547 36.0794 23.6647 -0.344451 0.363621 1.2492 -0.544008
2547 1 18.3847 25.7294 18.3547 -0.430298 0.345363 0.00805359 0.132072
2548 1 14.3247 36.5494 13.0847 -0.447611 -0.0496509 -0.645419 0.598369
2549 1 17.1047 36.1694 19.1747 -0.350744 -0.301475 -0.466342 -1.15937
2550 1 22.7647 31.1494 13.3347 -0.326365 0.996674 -0.777103 1.09356
2551 1 14.4547 35.9594 22.7747 -0.382521 -0.874387 1.41947 0.876583
2552 1 17.8047 26.9494 15.5847 -0.366244 -1.58905 1.40304 -0.800863
2553 1 21.0047 32.4794 24.6147 -0.416318 -0.455276 -0.0905466 0.376104
2554 1 22.9547 30.6994 21.1047 -0.394249 0.641321 1.45689 0.242615
2555 1 14.8147 31.1194 24.5447 -0.416526 -0.176576 0.565236 1.08133
2556 1 12.7447 33.6594 22.4947 -0.378106 1.90132 0.678171 1.19039
2557 1 21.9147 37.0194 20.0147 -0.329557 -1.40431 0.150366 0.698061
2558 1 13.8547 27.2094 16.6147 -0.409847 -0.897494 2.03044 -1.61841
2559 1 22.1347 28.5794 16.0047 -0.385425 -0.312376 -0.0177645 0.00842253
2560 1 13.1947 34.1094 19.8347 -0.389396 -0.0507448 -1.95391 0.371115
2561 2 23.5347 27.7594 15.1847 0.191006 0.242637 0.249611 -0.242651
2562 2 17.9547 30.3994 15.0447 0.193885 0.173014 -0.778967 1.25701
2563 2 12.6847 31.6894 15.7347 0.202655 0.689765 -0.383474 1.08408
2564 2 16.7247 29.0794 16.9047 0.17904 -0.617849 0.498775 0.550851
2565 2 16.0747 36.4494 24.2047 0.196223 -1.92572 -0.273382 -0.129462
2566 2 18.9747 36.9594 14.4347 0.175621 -0.00360423 -0.076783 0.0486988
2567 2 17.8147 34.0294 23.2947 0.192167 0.344535 0.250818 -0.896846
2568 2 18.1847 35.1994 14.0847 0.184006 0.0442105 0.25164 0.0827911
2569 2 21.1547 35.9594 12.8547 0.17763 0.422522 -0.0590896 -0.677251
2570 2 12.7147 25.9294 20.7147 0.173441 -1.12377 -0.989641 0.443637
2571 2 17.9047 31.9694 23.5947 0.180688 0.237314 0.26681 0.0569097
2572 2 16.2847 29.0594 13.5047 0.193773 -0.430985 -1.5975 0.0114875
2573 2 23.9947 35.0794 16.5947 0.193319 -0.344378 -0.23835 -0.197763
2574 2 15.4447 33.0594 14.5847 0.18516 0.135004 -0.08156 -0.0868503
2575 2 21.9747 34.9294 23.0047 0.183595 0.0381946 -1.11775 -0.571169
2576 2 23.6247 29.7294 18.4947 0.169879 -0.438841 0.441047 -1.51323
2577 2 13.1247 28.6494 24.8847 0.177372 -0.29155 -0.5374 -0.242296
2578 2 12.8747 30.3994 17.3247 0.191063 -0.911668 -0.445049 0.172007
2579 2 21.9547 34.3694 16.3847 0.198767 -0.777856 0.453468 0.709527
2580 2 21.5247 30.7794 22.1247 0.183631 -0.873536 -0.131889 0.69446
2581 2 20.3647 28.7194 13.2447 0.157297 -0.370783 1.9901 0.389995
2582 2 16.6747 28.1094 20.6547 0.191194 -1.42391 0.140275 -0.00568218
2583 2 17.7147 30.7894 20.6347 0.18637 0.231079 -0.0760055 -0.406507
2584 2 16.8847 35.7894 15.5847 0.186774 -0.369906 -0.593128 0.691868
2585 2 19.3747 29.4494 17.3347 0.1968 0.140624 0.23838 0.137505
2586 2 24.3247 26.4994 24.1947 0.177225 0.613594 1.15349 -0.98009
2587 2 19.2347 33.4294 15.5347 0.175368 0.0995762 0.218338 0.449133
2588 2 18.0647 29.8794 22.5747 0.221124 0.00679762 -0.644039 0.236309
2589 2 15.5347 31.5494 19.4247 0.191092 1.43385 -0.115632 0.191254
2590 2 24.1747 33.1094 19.3047 0.191113 -0.600481 -0.543319 -0.0195901
2591 2 20.8447 28.3394 18.6247 0.180758 0.29957 0.121704 0.376303
2592 2 17.0847 27.2594 24.6047 0.183436 0.774004 -0.148313 -0.517202
2593 2 13.1847 36.5794 16.3047 0.193331 1.24464 0.48628 -0.165106
2594 2 13.5447 30.1894 22.1647 0.198265 -0.394015 -0.607498 0.476834
2595 2 19.9847 33.9994 13.2747 0.192116 -0.0556293 -0.517782 -0.239876
2596 2 23.8047 31.0894 24.3447 0.192143 -0.194157 -0.056922 0.0439583
2597 2 18.2947 27.0994 19.9747 0.183621 0.497818 1.05772 0.321709
2598 2 21.2547 26.8994 22.3347 0.182684 0.0117993 -0.0969219 -0.0594971
2599 2 14.6147 27.3194 19.9047 0.202487 -1.14915 -0.170402 -0.334916
2600 2 22.5447 27.4194 18.9947 0.181258 0.112981 -0.135618 -0.230566
2601 2 21.5147 29.1794 23.3547 0.184907 -0.265505 -0.504532 0.000993671
2602 2 13.0847 33.0194 13.8947 0.199679 0.509346 0.674731 -0.308517
2603 2 23.5647 29.0894 20.5847 0.202259 -0.18343 0.403145 0.312279
2604 2 23.4747 36.9194 13.0247 0.195342 0.754058 1.1749 0.0467418
2605 2 19.2747 26.7294 24.6347 0.187672 -0.296938 0.227209 0.20546
2606 2 21.5747 35.3394 19.6947 0.185571 -0.160225 0.106158 -0.443071
2607 2 14.2047 37.3294 19.2447 0.185592 -1.18379 1.35752 -0.095053
2608 2 19.8147 36.7694 17.5247 0.175796 0.637223 -0.474333 -0.169102
2609 2 18.0347 33.1794 19.8847 0.218995 0.0580202 -0.600436 -0.182321
2610 2 20.5847 37.0094 23.3047 0.195424 -0.210877 -1.20672 0.445482
2611 2 17.9247 24.9494 18.7647 0.18894 0.122022 0.408562 -0.0842309
2612 2 13.4347 36.8794 12.8547 0.187845 0.420664 0.0199819 0.498783
2613 2 16.9847 35.8394 18.2347 0.183359 -0.0166684 0.130469 0.932395
2614 2 23.3847 31.1794 14.0947 0.201455 -0.0271744 0.593443 -0.475472
2615 2 14.9647 35.4394 22.2047 0.218255 1.17314 -0.879291 -1.41998
2616 2 17.1847 27.2994 14.8647 0.184875 0.756471 -0.550822 1.19336
2617 2 21.2847 33.1594 24.0047 0.185768 0.648316 0.253456 -0.371346
2618 2 23.3347 30.9494 22.0247 0.177024 -0.149975 -0.45076 -1.36993
2619 2 14.5947 30.8794 23.6247 0.183133 0.198184 0.153315 -0.208363
2620 2 12.9347 33.9494 21.5747 0.170818 -0.195472 -0.175707 0.133155
2621 2 21.1347 37.2294 20.5947 0.197811 0.866159 0.118071 -0.768141
2622 2 14.2047 26.3294 16.5147 0.192691 -0.221712 -1.0133 -0.531414
2623 2 22.4947 29.3294 16.5447 0.192316 -0.125967 -0.745334 -0.0156447
2624 2 13.8847 33.3794 19.7647 0.197896 -0.57679 0.967198 -0.266634
2625 2 24.6947 28.2094 14.1247 0.205745 -0.637711 -0.790006 0.707793
2626 2 18.7147 31.1094 14.0047 0.195051 -0.288682 -0.189982 -0.31042
2627 2 23.9447 32.7394 15.5847 0.211302 -0.832496 0.597965 0.81307
2628 2 15.4047 28.3294 17.0547 0.180348 -0.533171 -0.0679282 0.0315716
2629 2 17.4847 36.0594 23.7447 0.203952 0.127349 -0.381004 -0.585013
2630 2 20.0447 37.2794 15.4747 0.186688 0.82177 -0.728638 2.61783
2631 2 18.3847 34.5694 21.8147 0.201526 -0.66894 -0.412499 0.82415
2632 2 17.3747 36.3494 13.4047 0.192241 -0.183069 0.0484364 -0.0612472
2633 2 21.3647 36.5694 14.1347 0.18221 -0.842532 1.45771 1.60206
2634 2 24.5147 26.2494 21.9847 0.171109 -0.388884 0.418201 1.328
2635 2 16.6147 32.1694 24.2447 0.187175 -1.26444 -0.132451 0.621884
2636 2 15.1147 27.9794 13.4947 0.196792 0.335518 0.328194 0.05131
2637 2 24.3347 35.4794 18.0047 0.212694 0.132243 -0.756159 2.53355
2638 2 16.7147 32.1194 14.6047 0.187744 0.0819507 0.0437503 -0.0145365
2639 2 23.2447 34.1094 22.6247 0.18992 -0.381694 -0.312471 0.000707175
2640 2 23.1247 31.0894 17.8847 0.199547 0.402557 -0.469572 -0.0890544
2641 2 13.9547 29.7894 12.9747 0.18783 -0.395822 -0.206729 0.45405
2642 2 14.3847 30.2494 17.0547 0.202921 1.01912 -0.676927 -0.246068
2643 2 22.4647 34.5294 14.9147 0.193894 -0.0946674 -0.934629 1.59327
2644 2 20.8547 31.3194 23.4847 0.181307 0.148153 0.82208 0.803432
2645 2 21.0247 29.1794 14.4547 0.171346 -0.324577 0.687868 0.564195
2646 2 15.5647 29.1694 20.8547 0.18604 -0.390233 -0.00342335 0.188252
2647 2 17.5647 30.4294 19.0447 0.200549 0.113958 0.0926653 0.568066
2648 2 16.4147 34.4694 16.3347 0.200318 -0.122318 0.404638 -0.363296
2649 2 18.6147 28.5194 16.3447 0.1805 0.0639796 0.428596 0.0335349
2650 2 23.8447 27.8094 23.4347 0.186121 0.0360012 -0.322493 0.13068
2651 2 18.4047 32.9094 16.7047 0.206262 1.14921 0.802736 -0.0191925
2652 2 19.2547 30.7894 22.2747 0.201106 2.05203 -0.296831 0.21644
2653 2 14.2747 31.4794 18.6047 0.187749 -0.772065 -0.352092 -1.05867
2654 2 22.6347 33.2494 19.3247 0.185475 -0.393811 -0.00302038 -0.0332392
2655 2 21.1847 29.5594 19.5647 0.196504 -0.744382 -0.329149 -0.441247
2656 2 17.2847 25.9694 23.8247 0.193742 0.366891 -0.114326 0.0286703
2657 2 14.8247 36.5994 16.1447 0.187953 -1.23536 0.0337487 0.0339415
2658 2 14.4647 30.9894 21.3647 0.193418 0.561647 -0.413308 0.789833
2659 2 18.4947 33.3694 13.0547 0.185433 1.45642 0.977457 0.978247
2660 2 24.5647 31.9394 23.2547 0.183183 0.124934 0.27527 0.110944
2661 2 19.2547 28.3494 19.7547 0.173814 -1.21254 -0.276885 1.4721
2662 2 19.9647 26.8794 21.5447 0.171167 0.337063 -0.725391 0.216945
2663 2 13.6947 27.1494 18.6247 0.198334 -0.100625 0.233893 -1.44322
2664 2 21.7547 26.0794 18.7947 0.177467 0.392019 1.87791 -1.00921
2665 2 21.2847 27.7894 24.1347 0.189554 0.0720822 0.18277 -0.116
2666 2 13.8347 34.3294 13.2947 0.203751 -0.146567 0.597058 0.00257027
2667 2 24.5747 28.1094 19.9447 0.198005 2.70534 -1.03042 0.0528944
2668 2 23.8247 25.8394 13.7847 0.189016 1.08992 -0.904647 -1.35612
2669 2 19.8747 26.7094 13.6847 0.192865 0.551749 -0.285866 -1.97594
2670 2 21.5947 34.3194 20.7247 0.178035 0.441245 -0.710178 2.23728
2671 2 15.4147 36.5494 19.3247 0.189438 0.458861 -0.880797 0.139719
2672 2 19.9447 35.3194 16.9147 0.181808 0.703654 1.28921 0.431933
2673 2 19.1347 34.2894 19.9147 0.206108 2.27188 -0.0386717 -0.808151
2674 2 19.7347 35.6594 23.3747 0.190336 -0.341795 -0.0505407 -0.227413
2675 2 17.8947 25.9594 17.5647 0.197986 -0.070918 0.236628 -0.237703
2676 2 14.3647 36.4594 14.0647 0.180733 -0.408998 0.667424 -0.854456
2677 2 17.4947 35.4394 19.7047 0.212012 -0.248129 -0.144005 -0.376972
2678 2 22.1747 30.4094 13.5547 0.183029 -0.544849 -0.0114433 -0.514612
2679 2 14.1747 36.7394 22.2647 0.204137 -0.0845059 -0.535779 0.289283
2680 2 18.4647 26.4594 15.1147 0.172569 0.700398 -0.752366 -0.238809
2681 2 21.7847 32.0894 12.6547 0.198757 -0.392324 0.548763 -0.176825
2682 2 23.1547 31.4494 20.4147 0.182266 -0.323121 -1.06154 1.28723
2683 2 14.3047 31.9194 24.8147 0.189127 0.48065 -0.368893 -0.14669
2684 2 13.5247 34.0494 23.0347 0.184945 -2.28758 -0.741723 -1.18024
2685 2 22.6347 37.2794 20.5947 0.190646 0.843563 0.202286 0.0267375
2686 2 13.3647 27.4494 15.7247 0.175967 0.878413 -1.05619 2.45227
2687 2 21.7847 27.8994 16.6147 0.202541 0.483841 0.409821 -0.157706
2688 2 13.5547 34.9794 19.6547 0.213347 0.787 0.737314 -0.312228
2689 1 11.83 39.8941 14.6247 -0.418491 0.27625 0.657238 -0.200433
2690 1 5.36 43.3341 14.2547 -0.356018 0.34091 0.424455 -0.894579
2691 1 12.17 44.6741 15.1547 -0.375673 0.108542 -0.210887 -1.85841
2692 1 3.38 41.6141 17.2847 -0.401225 0.921447 -0.302085 -0.574772
2693 1 4.54 49.0641 24.3447 -0.352542 1.2109 0.715067 0.323248
2694 1 7.34 37.5141 14.6247 -0.375671 -0.527845 1.20551 -1.95301
2695 1 5.73 47.2341 22.7547 -0.425659 0.260714 0.0437586 0.365986
2696 1 5.32 48.5241 14.2747 -0.352291 -0.145285 -0.360948 0.00940134
2697 1 9.39 48.4741 13.5447 -0.384824 0.872338 -1.54209 -0.918551
2698 1 12.06 37.9741 21.3647 -0.432941 1.38584 0.308612 -1.86891
2699 1 5.01 45.0541 24.1847 -0.33121 1.05767 -0.0925185 -0.578518
2700 1 3.64 40.5241 13.5247 -0.329397 0.448991 1.35168 0.0296332
2701 1 11.88 48.2341 17.1447 -0.392604 0.205207 1.05595 -2.45385
2702 1 3.88 45.3841 14.9547 -0.464721 -0.268842 0.355878 0.230368
2703 1 9.82 46.4941 22.6247 -0.365582 0.33912 1.66961 0.487159
2704 1 11 42.6441 17.6147 -0.319963 0.138434 0.0561116 1.9146
2705 1 0.97 41.4541 13.2847 -0.355457 0.74512 0.775205 -0.737739
2706 1 1.24 43.3241 17.2047 -0.374759 -0.193258 0.928613 -0.354908
2707 1 10.1 46.4241 15.7647 -0.354105 0.910845 0.645133 -2.49248
2708 1 8.39 43.0541 22.8347 -0.373467 0.806771 -0.606321 -1.83738
2709 1 8.06 42.0541 13.7447 -0.36779 0.704094 -2.90774 -0.607362
2710 1 3.23 40.6741 20.7047 -0.401808 2.13809 -0.397468 -0.157454
2711 1 5.02 43.5441 19.7347 -0.410388 -0.430356 0.366311 -0.26482
2712 1 3.94 47.8841 16.3947 -0.402417 0.433442 0.317388 -0.0584357
2713 1 6.25 41.8941 16.6547 -0.380616 -0.393408 -0.784993 -0.268436
2714 1 12.18 39.6841 23.5547 -0.382165 -0.847398 -0.742906 1.12306
2715 1 6.76 45.9041 16.5147 -0.403468 -1.14814 -0.761848 -0.553723
2716 1 5.87 43.1741 22.2347 -0.349098 -2.30359 0.637254 -0.272997
2717 1 2.18 44.2441 19.4347 -0.400386 -0.46605 0.74403 1.54717
2718 1 10.89 45.0241 19.2247 -0.350545 0.885493 0.570814 0.0353048
2719 1 8.03 41.6141 19.0147 -0.327247 0.482393 0.0230179 -0.0798888
2720 1 5.29 39.2541 24.0047 -0.42046 -1.16674 0.352032 0.519754
2721 1 1.53 49.4941 15.8947 -0.410574 0.411193 -0.955707 0.46779
2722 1 2.04 42.8241 22.1547 -0.307415 -0.567451 1.07232 -2.10705
2723 1 6.66 46.3841 13.6547 -0.337037 -1.61838 -1.07738 -0.670262
2724 1 11.75 43.5141 23.4547 -0.375509 0.109262 0.0675066 -0.490574
2725 1 6.11 40.4041 20.4047 -0.386895 0.529776 -0.929978 -1.62596
2726 1 8.22 38.7141 21.8747 -0.395923 -0.580891 0.677723 -0.139494
2727 1 1.31 39.3541 19.5347 -0.381656 1.03092 0.0207556 1.57355
2728 1 9.48 39.4441 18.3647 -0.386544 -0.466547 -1.80293 1.20747
2729 1 9.33 40.6741 23.4147 -0.415653 0.367198 -0.156994 0.177887
2730 1 1.31 45.8241 13.2547 -0.391659 -0.324871 -1.14428 0.312428
2731 1 11.25 40.8141 19.9547 -0.362951 -2.51327 0.883572 -0.600301
2732 1 11.7 37.6641 13.0447 -0.37721 -1.746 -0.0721553 1.00754
2733 1 7.63 39.3741 12.7247 -0.388925 0.179815 0.44607 1.55235
2734 1 8.86 46.8541 19.8447 -0.387579 -0.342399 0.412207 -1.61058
2735 1 2.01 48.8741 19.3347 -0.409735 0.352719 -0.503182 0.166525
2736 1 8.02 48.6041 17.1047 -0.386294 -1.67358 -0.912962 -0.15567
2737 1 5.82 46.5141 20.1547 -0.322042 -1.62593 0.149902 0.939817
2738 1 8.11 48.5241 23.6647 -0.344453 0.363648 1.24918 -0.543995
2739 1 5.94 38.1741 18.3547 -0.430297 0.34542 0.00809631 0.132074
2740 1 1.88 48.9941 13.0847 -0.447611 -0.0496841 -0.645401 0.598361
2741 1 4.66 48.6141 19.1747 -0.350741 -0.301459 -0.466388 -1.15939
2742 1 10.32 43.5941 13.3347 -0.326365 0.996624 -0.777162 1.09356
2743 1 2.01 48.4041 22.7747 -0.382521 -0.874494 1.41964 0.876584
2744 1 5.36 39.3941 15.5847 -0.366244 -1.58899 1.40299 -0.800871
2745 1 8.56 44.9241 24.6147 -0.416319 -0.455314 -0.0905429 0.376105
2746 1 10.51 43.1441 21.1047 -0.394249 0.641337 1.45689 0.24261
2747 1 2.37 43.5641 24.5447 -0.416526 -0.176631 0.565349 1.08138
2748 1 0.3 46.1041 22.4947 -0.378106 1.90132 0.678172 1.19039
2749 1 9.47 49.4641 20.0147 -0.329556 -1.40441 0.150362 0.69805
2750 1 1.41 39.6541 16.6147 -0.409848 -0.897572 2.03063 -1.6184
2751 1 9.69 41.0241 16.0047 -0.385426 -0.312376 -0.0177852 0.00845451
2752 1 0.75 46.5541 19.8347 -0.389395 -0.0507802 -1.95383 0.371114
2753 2 11.09 40.2041 15.1847 0.191007 0.242656 0.249599 -0.242668
2754 2 5.51 42.8441 15.0447 0.193885 0.173022 -0.778991 1.25705
2755 2 0.24 44.1341 15.7347 0.202655 0.689831 -0.38354 1.08415
2756 2 4.28 41.5241 16.9047 0.179041 -0.617829 0.498773 0.550842
2757 2 3.63 48.8941 24.2047 0.196223 -1.92571 -0.273386 -0.129467
2758 2 6.53 49.4041 14.4347 0.175621 -0.00356408 -0.0767478 0.0487044
2759 2 5.37 46.4741 23.2947 0.192165 0.344566 0.25091 -0.896882
2760 2 5.74 47.6441 14.0847 0.184005 0.0441692 0.251741 0.0828026
2761 2 8.71 48.4041 12.8547 0.17763 0.422523 -0.0590905 -0.677253
2762 2 0.27 38.3741 20.7147 0.17344 -1.1238 -0.989666 0.443656
2763 2 5.46 44.4141 23.5947 0.180688 0.23731 0.266781 0.0568962
2764 2 3.84 41.5041 13.5047 0.193774 -0.430979 -1.59742 0.0114865
2765 2 11.55 47.5241 16.5947 0.193318 -0.344379 -0.238347 -0.197776
2766 2 3 45.5041 14.5847 0.185158 0.135043 -0.081563 -0.0868323
2767 2 9.53 47.3741 23.0047 0.183594 0.0382055 -1.11775 -0.571172
2768 2 11.18 42.1741 18.4947 0.169879 -0.438847 0.44107 -1.51325
2769 2 0.68 41.0941 24.8847 0.177371 -0.291539 -0.537382 -0.242266
2770 2 0.43 42.8441 17.3247 0.191063 -0.911686 -0.445058 0.172007
2771 2 9.51 46.8141 16.3847 0.198767 -0.777856 0.453467 0.709528
2772 2 9.08 43.2241 22.1247 0.183631 -0.873508 -0.131868 0.69444
2773 2 7.92 41.1641 13.2447 0.157297 -0.370778 1.9901 0.389999
2774 2 4.23 40.5541 20.6547 0.191194 -1.4239 0.140266 -0.00568208
2775 2 5.27 43.2341 20.6347 0.18637 0.231073 -0.0759881 -0.406523
2776 2 4.44 48.2341 15.5847 0.186774 -0.369901 -0.593125 0.691866
2777 2 6.93 41.8941 17.3347 0.1968 0.140635 0.238381 0.137513
2778 2 11.88 38.9441 24.1947 0.177225 0.613587 1.15349 -0.980088
2779 2 6.79 45.8741 15.5347 0.175367 0.0995725 0.218339 0.449137
2780 2 5.62 42.3241 22.5747 0.221124 0.0067788 -0.644123 0.236344
2781 2 3.09 43.9941 19.4247 0.191092 1.4339 -0.115645 0.191252
2782 2 11.73 45.5541 19.3047 0.191114 -0.600411 -0.543248 -0.0195817
2783 2 8.4 40.7841 18.6247 0.180758 0.299534 0.121766 0.376327
2784 2 4.64 39.7041 24.6047 0.183435 0.774033 -0.148338 -0.517228
2785 2 0.74 49.0241 16.3047 0.193333 1.2446 0.486237 -0.165076
2786 2 1.1 42.6341 22.1647 0.198266 -0.394066 -0.60751 0.476839
2787 2 7.54 46.4441 13.2747 0.192115 -0.0556543 -0.517777 -0.239858
2788 2 11.36 43.5341 24.3447 0.192143 -0.194151 -0.0569281 0.0439454
2789 2 5.85 39.5441 19.9747 0.183622 0.49779 1.05761 0.321656
2790 2 8.81 39.3441 22.3347 0.182684 0.0117983 -0.0969152 -0.0594944
2791 2 2.17 39.7641 19.9047 0.202487 -1.14914 -0.170399 -0.334912
2792 2 10.1 39.8641 18.9947 0.181258 0.112963 -0.135635 -0.230585
2793 2 9.07 41.6241 23.3547 0.184907 -0.265486 -0.504597 0.000992232
2794 2 0.64 45.4641 13.8947 0.199679 0.509377 0.674764 -0.308543
2795 2 11.12 41.5341 20.5847 0.202259 -0.183431 0.403105 0.312239
2796 2 11.03 49.3641 13.0247 0.195342 0.754035 1.17486 0.0467399
2797 2 6.83 39.1741 24.6347 0.187671 -0.296903 0.227226 0.205476
2798 2 9.13 47.7841 19.6947 0.185572 -0.160235 0.106134 -0.443069
2799 2 1.76 49.7741 19.2447 0.185591 -1.18373 1.35731 -0.095031
2800 2 7.37 49.2141 17.5247 0.175797 0.637208 -0.474322 -0.169095
2801 2 5.59 45.6241 19.8847 0.218995 0.0580343 -0.600431 -0.182327
2802 2 8.14 49.4541 23.3047 0.195424 -0.210897 -1.20673 0.445476
2803 2 5.48 37.3941 18.7647 0.18894 0.121992 0.408517 -0.084209
2804 2 0.99 49.3241 12.8547 0.187844 0.420698 0.0199611 0.498794
2805 2 4.54 48.2841 18.2347 0.183359 -0.0166717 0.130498 0.93242
2806 2 10.94 43.6241 14.0947 0.201456 -0.0271559 0.593444 -0.475453
2807 2 2.52 47.8841 22.2047 0.218254 1.17321 -0.879359 -1.42005
2808 2 4.74 39.7441 14.8647 0.184875 0.756453 -0.550803 1.19335
2809 2 8.84 45.6041 24.0047 0.185769 0.648323 0.253466 -0.371354
2810 2 10.89 43.3941 22.0247 0.177024 -0.149983 -0.450764 -1.36993
2811 2 2.15 43.3241 23.6247 0.183133 0.198179 0.153309 -0.208381
2812 2 0.49 46.3941 21.5747 0.170817 -0.195474 -0.175709 0.133158
2813 2 8.69 49.6741 20.5947 0.197812 0.866207 0.118058 -0.768173
2814 2 1.76 38.7741 16.5147 0.192692 -0.221641 -1.01348 -0.531435
2815 2 10.05 41.7741 16.5447 0.192316 -0.125978 -0.745352 -0.0156508
2816 2 1.44 45.8241 19.7647 0.197896 -0.576744 0.967128 -0.266636
2817 2 12.25 40.6541 14.1247 0.205745 -0.637692 -0.789965 0.707768
2818 2 6.27 43.5541 14.0047 0.19505 -0.2887 -0.189987 -0.310415
2819 2 11.5 45.1841 15.5847 0.211302 -0.832418 0.597908 0.813017
2820 2 2.96 40.7741 17.0547 0.180348 -0.533168 -0.0679272 0.0315735
2821 2 5.04 48.5041 23.7447 0.203951 0.127404 -0.381073 -0.585079
2822 2 7.6 49.7241 15.4747 0.186687 0.821761 -0.728632 2.61779
2823 2 5.94 47.0141 21.8147 0.201526 -0.668937 -0.412474 0.82417
2824 2 4.93 48.7941 13.4047 0.192241 -0.183055 0.0484244 -0.0612368
2825 2 8.92 49.0141 14.1347 0.182209 -0.842519 1.45769 1.60204
2826 2 12.07 38.6941 21.9847 0.171108 -0.388887 0.418144 1.32795
2827 2 4.17 44.6141 24.2447 0.187175 -1.26451 -0.132502 0.621879
2828 2 2.67 40.4241 13.4947 0.196793 0.335574 0.328216 0.0513104
2829 2 11.89 47.9241 18.0047 0.212694 0.132246 -0.756127 2.53347
2830 2 4.27 44.5641 14.6047 0.187744 0.08191 0.0438512 -0.0144929
2831 2 10.8 46.5541 22.6247 0.189919 -0.381739 -0.312467 0.000709982
2832 2 10.68 43.5341 17.8847 0.199547 0.402558 -0.469575 -0.0890491
2833 2 1.51 42.2341 12.9747 0.18783 -0.395782 -0.206671 0.454026
2834 2 1.94 42.6941 17.0547 0.202921 1.01911 -0.676917 -0.246067
2835 2 10.02 46.9741 14.9147 0.193895 -0.094668 -0.93463 1.59327
2836 2 8.41 43.7641 23.4847 0.181308 0.148163 0.822133 0.80347
2837 2 8.58 41.6241 14.4547 0.171346 -0.324567 0.687859 0.564208
2838 2 3.12 41.6141 20.8547 0.18604 -0.390214 -0.00361746 0.188222
2839 2 5.12 42.8741 19.0447 0.200548 0.113947 0.0927175 0.568106
2840 2 3.97 46.9141 16.3347 0.200318 -0.12232 0.404633 -0.363296
2841 2 6.17 40.9641 16.3447 0.180499 0.063979 0.428597 0.0335338
2842 2 11.4 40.2541 23.4347 0.186121 0.0359994 -0.322495 0.130682
2843 2 5.96 45.3541 16.7047 0.206263 1.14918 0.802719 -0.0191894
2844 2 6.81 43.2341 22.2747 0.201106 2.05204 -0.296834 0.216441
2845 2 1.83 43.9241 18.6047 0.187749 -0.772061 -0.352088 -1.05867
2846 2 10.19 45.6941 19.3247 0.185476 -0.39383 -0.00297038 -0.0332328
2847 2 8.74 42.0041 19.5647 0.196503 -0.744382 -0.329137 -0.44124
2848 2 4.84 38.4141 23.8247 0.193742 0.366901 -0.114303 0.0286769
2849 2 2.38 49.0441 16.1447 0.187954 -1.23531 0.0337015 0.0339654
2850 2 2.02 43.4341 21.3647 0.193418 0.56165 -0.413305 0.789829
2851 2 6.05 45.8141 13.0547 0.185431 1.45644 0.977493 0.978275
2852 2 12.12 44.3841 23.2547 0.183182 0.124868 0.275112 0.110972
2853 2 6.81 40.7941 19.7547 0.173814 -1.21258 -0.276915 1.47213
2854 2 7.52 39.3241 21.5447 0.171167 0.337094 -0.725413 0.21696
2855 2 1.25 39.5941 18.6247 0.198333 -0.100625 0.233886 -1.44319
2856 2 9.31 38.5241 18.7947 0.177467 0.392008 1.87786 -1.00919
2857 2 8.84 40.2341 24.1347 0.189554 0.0720672 0.182748 -0.115974
2858 2 1.39 46.7741 13.2947 0.203751 -0.146576 0.597056 0.00257661
2859 2 12.13 40.5541 19.9447 0.198004 2.70532 -1.03041 0.0528889
2860 2 11.38 38.2841 13.7847 0.189016 1.08992 -0.904647 -1.35612
2861 2 7.43 39.1541 13.6847 0.192864 0.551765 -0.285852 -1.97596
2862 2 9.15 46.7641 20.7247 0.178034 0.44124 -0.710179 2.23727
2863 2 2.97 48.9941 19.3247 0.189438 0.458822 -0.880797 0.139718
2864 2 7.5 47.7641 16.9147 0.181808 0.703653 1.28921 0.431934
2865 2 6.69 46.7341 19.9147 0.206108 2.27188 -0.0386837 -0.808154
2866 2 7.29 48.1041 23.3747 0.190336 -0.341801 -0.050521 -0.227422
2867 2 5.45 38.4041 17.5647 0.197986 -0.0709407 0.236635 -0.237733
2868 2 1.92 48.9041 14.0647 0.180734 -0.408999 0.667423 -0.85446
2869 2 5.05 47.8841 19.7047 0.212011 -0.248137 -0.143993 -0.376968
2870 2 9.73 42.8541 13.5547 0.183029 -0.544813 -0.0113913 -0.514629
2871 2 1.73 49.1841 22.2647 0.204137 -0.08447 -0.535887 0.289357
2872 2 6.02 38.9041 15.1147 0.172569 0.700362 -0.752338 -0.238781
2873 2 9.34 44.5341 12.6547 0.198757 -0.392303 0.54876 -0.176815
2874 2 10.71 43.8941 20.4147 0.182266 -0.323128 -1.06155 1.28724
2875 2 1.86 44.3641 24.8147 0.189126 0.480708 -0.36899 -0.146719
2876 2 1.08 46.4941 23.0347 0.184945 -2.28758 -0.741724 -1.18024
2877 2 10.19 49.7241 20.5947 0.190646 0.843615 0.202305 0.0267805
2878 2 0.92 39.8941 15.7247 0.175966 0.878421 -1.0562 2.45228
2879 2 9.34 40.3441 16.6147 0.202541 0.483856 0.409858 -0.15773
2880 2 1.11 47.4241 19.6547 0.213347 0.786988 0.737316 -0.312225
2881 1 24.2747 39.8941 14.6247 -0.418491 0.276249 0.657239 -0.200435
2882 1 17.8047 43.3341 14.2547 -0.356018 0.340905 0.424463 -0.894585
2883 1 24.6147 44.6741 15.1547 -0.375673 0.108542 -0.210891 -1.85841
2884 1 15.8247 41.6141 17.2847 -0.401225 0.921468 -0.302087 -0.574781
2885 1 16.9847 49.0641 24.3447 -0.352542 1.2109 0.715065 0.323246
2886 1 19.7847 37.5141 14.6247 -0.37567 -0.527837 1.20551 -1.953
2887 1 18.1747 47.2341 22.7547 -0.425659 0.260715 0.0437551 0.365984
2888 1 17.7647 48.5241 14.2747 -0.352291 -0.145272 -0.360959 0.00940924
2889 1 21.8347 48.4741 13.5447 -0.384825 0.872352 -1.54211 -0.918567
2890 1 24.5047 37.9741 21.3647 -0.432941 1.38585 0.308619 -1.86892
2891 1 17.4547 45.0541 24.1847 -0.33121 1.05766 -0.0925066 -0.578509
2892 1 16.0847 40.5241 13.5247 -0.329397 0.449031 1.35169 0.029636
2893 1 24.3247 48.2341 17.1447 -0.392604 0.205209 1.05595 -2.45385
2894 1 16.3247 45.3841 14.9547 -0.464722 -0.268787 0.355852 0.230377
2895 1 22.2647 46.4941 22.6247 -0.365581 0.339086 1.6696 0.48716
2896 1 23.4447 42.6441 17.6147 -0.319962 0.138434 0.0561118 1.9146
2897 1 13.4147 41.4541 13.2847 -0.355458 0.745132 0.775219 -0.737743
2898 1 13.6847 43.3241 17.2047 -0.374759 -0.193282 0.928607 -0.354906
2899 1 22.5447 46.4241 15.7647 -0.354105 0.910844 0.645131 -2.49248
2900 1 20.8347 43.0541 22.8347 -0.373467 0.806791 -0.606311 -1.83739
2901 1 20.5047 42.0541 13.7447 -0.36779 0.704111 -2.90775 -0.607346
2902 1 15.6747 40.6741 20.7047 -0.401808 2.13809 -0.397476 -0.157455
2903 1 17.4647 43.5441 19.7347 -0.410388 -0.430358 0.366318 -0.264818
2904 1 16.3847 47.8841 16.3947 -0.402417 0.433439 0.317387 -0.0584321
2905 1 18.6947 41.8941 16.6547 -0.380616 -0.393396 -0.784994 -0.268425
2906 1 24.6247 39.6841 23.5547 -0.382165 -0.847404 -0.74291 1.12307
2907 1 19.2047 45.9041 16.5147 -0.403469 -1.14817 -0.761868 -0.553718
2908 1 18.3147 43.1741 22.2347 -0.349098 -2.30356 0.637256 -0.272995
2909 1 14.6247 44.2441 19.4347 -0.400386 -0.465998 0.744019 1.54717
2910 1 23.3347 45.0241 19.2247 -0.350546 0.885568 0.57079 0.035302
2911 1 20.4747 41.6141 19.0147 -0.327248 0.482363 0.0230233 -0.0799008
2912 1 17.7347 39.2541 24.0047 -0.42046 -1.16672 0.352047 0.519748
2913 1 13.9747 49.4941 15.8947 -0.410573 0.411198 -0.955708 0.46779
2914 1 14.4847 42.8241 22.1547 -0.307416 -0.567484 1.07232 -2.10705
2915 1 19.1047 46.3841 13.6547 -0.337037 -1.61844 -1.07739 -0.67025
2916 1 24.1947 43.5141 23.4547 -0.375509 0.109261 0.0674942 -0.490582
2917 1 18.5547 40.4041 20.4047 -0.386894 0.529762 -0.929981 -1.62595
2918 1 20.6647 38.7141 21.8747 -0.395923 -0.580859 0.677704 -0.139478
2919 1 13.7547 39.3541 19.5347 -0.381656 1.03093 0.0207585 1.57356
2920 1 21.9247 39.4441 18.3647 -0.386543 -0.466551 -1.80293 1.20747
2921 1 21.7747 40.6741 23.4147 -0.415653 0.367197 -0.156992 0.177886
2922 1 13.7547 45.8241 13.2547 -0.391658 -0.324872 -1.14428 0.312429
2923 1 23.6947 40.8141 19.9547 -0.362952 -2.51333 0.883593 -0.600299
2924 1 24.1447 37.6641 13.0447 -0.377211 -1.74597 -0.0721183 1.00755
2925 1 20.0747 39.3741 12.7247 -0.388924 0.179853 0.446081 1.55236
2926 1 21.3047 46.8541 19.8447 -0.38758 -0.342416 0.412185 -1.61059
2927 1 14.4547 48.8741 19.3347 -0.409735 0.352677 -0.503186 0.166525
2928 1 20.4647 48.6041 17.1047 -0.386294 -1.6736 -0.912947 -0.15566
2929 1 18.2647 46.5141 20.1547 -0.322041 -1.62587 0.149917 0.939805
2930 1 20.5547 48.5241 23.6647 -0.344452 0.36357 1.24915 -0.544021
2931 1 18.3847 38.1741 18.3547 -0.430297 0.345385 0.0080851 0.132047
2932 1 14.3247 48.9941 13.0847 -0.447611 -0.0496978 -0.645397 0.598357
2933 1 17.1047 48.6141 19.1747 -0.350741 -0.301467 -0.466377 -1.15941
2934 1 22.7647 43.5941 13.3347 -0.326365 0.996636 -0.77716 1.09358
2935 1 14.4547 48.4041 22.7747 -0.382521 -0.874509 1.41966 0.876594
2936 1 17.8047 39.3941 15.5847 -0.366244 -1.589 1.403 -0.800876
2937 1 21.0047 44.9241 24.6147 -0.416319 -0.455278 -0.0905419 0.376108
2938 1 22.9547 43.1441 21.1047 -0.394248 0.641324 1.45688 0.242607
2939 1 14.8147 43.5641 24.5447 -0.416527 -0.176638 0.565356 1.08138
2940 1 12.7447 46.1041 22.4947 -0.378106 1.90132 0.678169 1.19039
2941 1 21.9147 49.4641 20.0147 -0.329557 -1.40431 0.150371 0.698062
2942 1 13.8547 39.6541 16.6147 -0.409847 -0.897566 2.03062 -1.6184
2943 1 22.1347 41.0241 16.0047 -0.385426 -0.312396 -0.0178141 0.00845074
2944 1 13.1947 46.5541 19.8347 -0.389396 -0.0507906 -1.95383 0.371117
2945 2 23.5347 40.2041 15.1847 0.191007 0.242658 0.249599 -0.242668
2946 2 17.9547 42.8441 15.0447 0.193885 0.173024 -0.778994 1.25705
2947 2 12.6847 44.1341 15.7347 0.202655 0.689832 -0.383542 1.08415
2948 2 16.7247 41.5241 16.9047 0.179041 -0.61785 0.498775 0.550851
2949 2 16.0747 48.8941 24.2047 0.196223 -1.92572 -0.273386 -0.129465
2950 2 18.9747 49.4041 14.4347 0.175621 -0.00357132 -0.0767518 0.0487045
2951 2 17.8147 46.4741 23.2947 0.192166 0.34457 0.250912 -0.896884
2952 2 18.1847 47.6441 14.0847 0.184006 0.0441661 0.251746 0.0828045
2953 2 21.1547 48.4041 12.8547 0.17763 0.422524 -0.0590883 -0.677251
2954 2 12.7147 38.3741 20.7147 0.17344 -1.12379 -0.989658 0.443645
2955 2 17.9047 44.4141 23.5947 0.180688 0.237325 0.266769 0.0568837
2956 2 16.2847 41.5041 13.5047 0.193773 -0.430985 -1.59742 0.011486
2957 2 23.9947 47.5241 16.5947 0.193318 -0.344378 -0.238347 -0.197776
2958 2 15.4447 45.5041 14.5847 0.185159 0.135003 -0.0815604 -0.0868506
2959 2 21.9747 47.3741 23.0047 0.183594 0.0381964 -1.11774 -0.571169
2960 2 23.6247 42.1741 18.4947 0.169879 -0.438847 0.441071 -1.51325
2961 2 13.1247 41.0941 24.8847 0.177371 -0.291538 -0.53738 -0.242265
2962 2 12.8747 42.8441 17.3247 0.191063 -0.911668 -0.445046 0.172005
2963 2 21.9547 46.8141 16.3847 0.198767 -0.777856 0.453467 0.709527
2964 2 21.5247 43.2241 22.1247 0.18363 -0.873526 -0.131874 0.694453
2965 2 20.3647 41.1641 13.2447 0.157297 -0.370783 1.9901 0.389996
2966 2 16.6747 40.5541 20.6547 0.191194 -1.4239 0.140264 -0.00568219
2967 2 17.7147 43.2341 20.6347 0.18637 0.231071 -0.0759901 -0.406523
2968 2 16.8847 48.2341 15.5847 0.186774 -0.369902 -0.593126 0.691865
2969 2 19.3747 41.8941 17.3347 0.1968 0.140623 0.238381 0.137503
2970 2 24.3247 38.9441 24.1947 0.177225 0.613594 1.15349 -0.980091
2971 2 19.2347 45.8741 15.5347 0.175367 0.0995774 0.21834 0.449135
2972 2 18.0647 42.3241 22.5747 0.221125 0.00677826 -0.644123 0.236344
2973 2 15.5347 43.9941 19.4247 0.191091 1.43385 -0.115631 0.191253
2974 2 24.1747 45.5541 19.3047 0.191114 -0.600433 -0.543265 -0.0195839
2975 2 20.8447 40.7841 18.6247 0.180758 0.299543 0.121756 0.376325
2976 2 17.0847 39.7041 24.6047 0.183435 0.774022 -0.148336 -0.517221
2977 2 13.1847 49.0241 16.3047 0.193333 1.2446 0.486237 -0.165076
2978 2 13.5447 42.6341 22.1647 0.198266 -0.394035 -0.607505 0.476839
2979 2 19.9847 46.4441 13.2747 0.192116 -0.0556123 -0.517775 -0.239877
2980 2 23.8047 43.5341 24.3447 0.192143 -0.194159 -0.0569306 0.0439593
2981 2 18.2947 39.5441 19.9747 0.183621 0.497789 1.05761 0.321656
2982 2 21.2547 39.3441 22.3347 0.182684 0.0118016 -0.0969188 -0.0594931
2983 2 14.6147 39.7641 19.9047 0.202487 -1.14915 -0.170401 -0.334914
2984 2 22.5447 39.8641 18.9947 0.181258 0.112962 -0.135638 -0.230585
2985 2 21.5147 41.6241 23.3547 0.184907 -0.265486 -0.504601 0.000993507
2986 2 13.0847 45.4641 13.8947 0.199679 0.509377 0.674763 -0.308544
2987 2 23.5647 41.5341 20.5847 0.202259 -0.183426 0.403101 0.312237
2988 2 23.4747 49.3641 13.0247 0.195342 0.754002 1.17483 0.0467395
2989 2 19.2747 39.1741 24.6347 0.187672 -0.296929 0.227219 0.205465
2990 2 21.5747 47.7841 19.6947 0.185572 -0.160226 0.106155 -0.44307
2991 2 14.2047 49.7741 19.2447 0.185591 -1.18373 1.35731 -0.0950312
2992 2 19.8147 49.2141 17.5247 0.175797 0.637226 -0.474335 -0.169105
2993 2 18.0347 45.6241 19.8847 0.218995 0.0580329 -0.600435 -0.182328
2994 2 20.5847 49.4541 23.3047 0.195424 -0.210888 -1.20673 0.445477
2995 2 17.9247 37.3941 18.7647 0.188941 0.122005 0.40853 -0.0842112
2996 2 13.4347 49.3241 12.8547 0.187844 0.42071 0.0199571 0.498798
2997 2 16.9847 48.2841 18.2347 0.18336 -0.0166684 0.130499 0.932424
2998 2 23.3847 43.6241 14.0947 0.201456 -0.0271728 0.593444 -0.47547
2999 2 14.9647 47.8841 22.2047 0.218254 1.17322 -0.879371 -1.42007
3000 2 17.1847 39.7441 14.8647 0.184875 0.75646 -0.550807 1.19335
3001 2 21.2847 45.6041 24.0047 0.185769 0.648315 0.253457 -0.371346
3002 2 23.3347 43.3941 22.0247 0.177024 -0.149975 -0.45076 -1.36993
3003 2 14.5947 43.3241 23.6247 0.183133 0.198183 0.153308 -0.208376
3004 2 12.9347 46.3941 21.5747 0.170818 -0.195473 -0.175709 0.133159
3005 2 21.1347 49.6741 20.5947 0.197812 0.866159 0.118069 -0.768141
3006 2 14.2047 38.7741 16.5147 0.192692 -0.221644 -1.01347 -0.531434
3007 2 22.4947 41.7741 16.5447 0.192316 -0.125966 -0.745334 -0.0156393
3008 2 13.8847 45.8241 19.7647 0.197896 -0.576735 0.967121 -0.266638
3009 2 24.6947 40.6541 14.1247 0.205745 -0.637692 -0.789965 0.707768
3010 2 18.7147 43.5541 14.0047 0.195051 -0.2887 -0.189989 -0.310414
3011 2 23.9447 45.1841 15.5847 0.211302 -0.832418 0.597909 0.813017
3012 2 15.4047 40.7741 17.0547 0.180348 -0.533168 -0.0679272 0.0315735
3013 2 17.4847 48.5041 23.7447 0.203952 0.127402 -0.381071 -0.585078
3014 2 20.0447 49.7241 15.4747 0.186687 0.821759 -0.728632 2.61778
3015 2 18.3847 47.0141 21.8147 0.201526 -0.668941 -0.412473 0.824174
3016 2 17.3747 48.7941 13.4047 0.192241 -0.183064 0.0484289 -0.0612472
3017 2 21.3647 49.0141 14.1347 0.18221 -0.842531 1.4577 1.60206
3018 2 24.5147 38.6941 21.9847 0.171108 -0.388888 0.418145 1.32795
3019 2 16.6147 44.6141 24.2447 0.187175 -1.26451 -0.132501 0.621882
3020 2 15.1147 40.4241 13.4947 0.196793 0.335542 0.328216 0.0513091
3021 2 24.3347 47.9241 18.0047 0.212694 0.132246 -0.756127 2.53347
3022 2 16.7147 44.5641 14.6047 0.187744 0.0818969 0.0438711 -0.0144854
3023 2 23.2447 46.5541 22.6247 0.18992 -0.381696 -0.312468 0.000707628
3024 2 23.1247 43.5341 17.8847 0.199547 0.402558 -0.469575 -0.0890489
3025 2 13.9547 42.2341 12.9747 0.18783 -0.395794 -0.206686 0.45403
3026 2 14.3847 42.6941 17.0547 0.202921 1.01912 -0.676923 -0.246069
3027 2 22.4647 46.9741 14.9147 0.193893 -0.0946683 -0.934629 1.59327
3028 2 20.8547 43.7641 23.4847 0.181308 0.148159 0.822131 0.803471
3029 2 21.0247 41.6241 14.4547 0.171346 -0.324578 0.687868 0.564194
3030 2 15.5647 41.6141 20.8547 0.18604 -0.390218 -0.00360867 0.188223
3031 2 17.5647 42.8741 19.0447 0.200548 0.113949 0.092713 0.568103
3032 2 16.4147 46.9141 16.3347 0.200318 -0.122319 0.404635 -0.363297
3033 2 18.6147 40.9641 16.3447 0.180499 0.0639793 0.428598 0.0335338
3034 2 23.8447 40.2541 23.4347 0.186121 0.0360002 -0.322494 0.13068
3035 2 18.4047 45.3541 16.7047 0.206263 1.14921 0.802737 -0.0191924
3036 2 19.2547 43.2341 22.2747 0.201106 2.05201 -0.296836 0.216441
3037 2 14.2747 43.9241 18.6047 0.187749 -0.772065 -0.352091 -1.05868
3038 2 22.6347 45.6941 19.3247 0.185476 -0.393879 -0.00293049 -0.0332275
3039 2 21.1847 42.0041 19.5647 0.196505 -0.744361 -0.32913 -0.441227
3040 2 17.2847 38.4141 23.8247 0.193742 0.366887 -0.114318 0.0286749
3041 2 14.8247 49.0441 16.1447 0.187954 -1.23531 0.0337036 0.0339648
3042 2 14.4647 43.4341 21.3647 0.193419 0.561652 -0.413305 0.789829
3043 2 18.4947 45.8141 13.0547 0.185432 1.45645 0.977499 0.97828
3044 2 24.5647 44.3841 23.2547 0.183182 0.124877 0.275127 0.110966
3045 2 19.2547 40.7941 19.7547 0.173813 -1.21256 -0.276911 1.47212
3046 2 19.9647 39.3241 21.5447 0.171167 0.33706 -0.725391 0.216944
3047 2 13.6947 39.5941 18.6247 0.198333 -0.100625 0.233886 -1.44319
3048 2 21.7547 38.5241 18.7947 0.177467 0.392012 1.87786 -1.00919
3049 2 21.2847 40.2341 24.1347 0.189553 0.0720663 0.182748 -0.115974
3050 2 13.8347 46.7741 13.2947 0.203751 -0.146575 0.597057 0.00257647
3051 2 24.5747 40.5541 19.9447 0.198004 2.70538 -1.03042 0.0528912
3052 2 23.8247 38.2841 13.7847 0.189016 1.08992 -0.90465 -1.35612
3053 2 19.8747 39.1541 13.6847 0.192864 0.551754 -0.285856 -1.97595
3054 2 21.5947 46.7641 20.7247 0.178034 0.441245 -0.710177 2.23728
3055 2 15.4147 48.9941 19.3247 0.189437 0.458862 -0.880793 0.139718
3056 2 19.9447 47.7641 16.9147 0.181809 0.703654 1.28921 0.431933
3057 2 19.1347 46.7341 19.9147 0.206108 2.27183 -0.0386952 -0.80814
3058 2 19.7347 48.1041 23.3747 0.190335 -0.341735 -0.0504944 -0.227397
3059 2 17.8947 38.4041 17.5647 0.197987 -0.0709181 0.23663 -0.237704
3060 2 14.3647 48.9041 14.0647 0.180734 -0.408999 0.667424 -0.854459
3061 2 17.4947 47.8841 19.7047 0.212011 -0.248129 -0.144002 -0.376962
3062 2 22.1747 42.8541 13.5547 0.183029 -0.54481 -0.0113888 -0.514627
3063 2 14.1747 49.1841 22.2647 0.204137 -0.0844663 -0.535896 0.289363
3064 2 18.4647 38.9041 15.1147 0.172569 0.700362 -0.752338 -0.238783
3065 2 21.7847 44.5341 12.6547 0.198757 -0.392325 0.548766 -0.176824
3066 2 23.1547 43.8941 20.4147 0.182266 -0.323123 -1.06154 1.28724
3067 2 14.3047 44.3641 24.8147 0.189126 0.480713 -0.368996 -0.146718
3068 2 13.5247 46.4941 23.0347 0.184945 -2.28758 -0.741722 -1.18024
3069 2 22.6347 49.7241 20.5947 0.190646 0.843561 0.202286 0.0267361
3070 2 13.3647 39.8941 15.7247 0.175966 0.878418 -1.0562 2.45228
3071 2 21.7847 40.3441 16.6147 0.202541 0.483863 0.409867 -0.157739
3072 2 13.5547 47.4241 19.6547 0.213347 0.786992 0.73732 -0.312226
3073 1 11.83 2.56 27.0694 -0.418491 0.276302 0.657264 -0.200485
3074 1 5.36 6 26.6994 -0.356019 0.340915 0.424399 -0.894495
3075 1 12.17 7.34 27.5994 -0.375672 0.108621 -0.210961 -1.85837
3076 1 3.38 4.28 29.7294 -0.401225 0.921443 -0.302101 -0.574781
3077 1 4.54 11.73 36.7894 -0.352543 1.21089 0.715066 0.323254
3078 1 7.34 0.18 27.0694 -0.375672 -0.527911 1.2055 -1.95309
3079 1 5.73 9.9 35.1994 -0.425659 0.260782 0.0438659 0.365839
3080 1 5.32 11.19 26.7194 -0.352291 -0.145321 -0.360888 0.00937908
3081 1 9.39 11.14 25.9894 -0.384824 0.872365 -1.54216 -0.918649
3082 1 12.06 0.64 33.8094 -0.432942 1.38579 0.308639 -1.86881
3083 1 5.01 7.72 36.6294 -0.331211 1.05764 -0.0925371 -0.578512
3084 1 3.64 3.19 25.9694 -0.329396 0.448998 1.35171 0.0296317
3085 1 11.88 10.9 29.5894 -0.392604 0.205197 1.05594 -2.45392
3086 1 3.88 8.05 27.3994 -0.464721 -0.2689 0.355994 0.230415
3087 1 9.82 9.16 35.0694 -0.365582 0.33912 1.6696 0.487159
3088 1 11 5.31 30.0594 -0.319963 0.138432 0.0561258 1.91457
3089 1 0.97 4.12 25.7294 -0.355457 0.745166 0.775276 -0.737716
3090 1 1.24 5.99 29.6494 -0.374759 -0.193283 0.928645 -0.354906
3091 1 10.1 9.09 28.2094 -0.354105 0.91088 0.645124 -2.49254
3092 1 8.39 5.72 35.2794 -0.373467 0.806786 -0.606246 -1.83733
3093 1 8.06 4.72 26.1894 -0.36779 0.704103 -2.90776 -0.607353
3094 1 3.23 3.34 33.1494 -0.401808 2.13811 -0.397564 -0.157462
3095 1 5.02 6.21 32.1794 -0.410387 -0.430396 0.366373 -0.26497
3096 1 3.94 10.55 28.8394 -0.402417 0.433445 0.317441 -0.0584429
3097 1 6.25 4.56 29.0994 -0.380616 -0.393406 -0.784972 -0.26843
3098 1 12.18 2.35 35.9994 -0.382164 -0.847402 -0.742857 1.12303
3099 1 6.76 8.57 28.9594 -0.403468 -1.14814 -0.761848 -0.553726
3100 1 5.87 5.84 34.6794 -0.349098 -2.30362 0.637169 -0.272956
3101 1 2.18 6.91 31.8794 -0.400384 -0.466049 0.744031 1.54716
3102 1 10.89 7.69 31.6694 -0.350545 0.885482 0.57088 0.0353164
3103 1 8.03 4.28 31.4594 -0.327248 0.482386 0.0230752 -0.0798624
3104 1 5.29 1.92 36.4494 -0.420459 -1.1667 0.352018 0.519715
3105 1 1.53 12.16 28.3394 -0.410573 0.411215 -0.955768 0.467824
3106 1 2.04 5.49 34.5994 -0.307416 -0.567454 1.07234 -2.10708
3107 1 6.66 9.05 26.0994 -0.337037 -1.61836 -1.07734 -0.670224
3108 1 11.75 6.18 35.8994 -0.375508 0.109213 0.0673958 -0.490526
3109 1 6.11 3.07 32.8494 -0.386894 0.529702 -0.930132 -1.62598
3110 1 8.22 1.38 34.3194 -0.395923 -0.58091 0.677709 -0.139509
3111 1 1.31 2.02 31.9794 -0.381656 1.03093 0.0207469 1.57358
3112 1 9.48 2.11 30.8094 -0.386544 -0.466571 -1.803 1.20747
3113 1 9.33 3.34 35.8594 -0.415654 0.367261 -0.156981 0.177803
3114 1 1.31 8.49 25.6994 -0.391659 -0.324854 -1.1443 0.312407
3115 1 11.25 3.48 32.3994 -0.362952 -2.51324 0.883579 -0.600296
3116 1 11.7 0.33 25.4894 -0.377211 -1.74595 -0.0720815 1.00754
3117 1 7.63 2.04 25.1694 -0.388923 0.179849 0.446082 1.5524
3118 1 8.86 9.52 32.2894 -0.387579 -0.342408 0.412161 -1.61056
3119 1 2.01 11.54 31.7794 -0.409735 0.35276 -0.503281 0.166535
3120 1 8.02 11.27 29.5494 -0.386294 -1.67357 -0.912982 -0.155679
3121 1 5.82 9.18 32.5994 -0.322041 -1.626 0.149812 0.939812
3122 1 8.11 11.19 36.1094 -0.344451 0.363658 1.24923 -0.54401
3123 1 5.94 0.84 30.7994 -0.430297 0.345401 0.00807448 0.13209
3124 1 1.88 11.66 25.5294 -0.447611 -0.0496632 -0.645407 0.598326
3125 1 4.66 11.28 31.6194 -0.350743 -0.301474 -0.466343 -1.1594
3126 1 10.32 6.26 25.7794 -0.326365 0.996658 -0.777106 1.09354
3127 1 2.01 11.07 35.2194 -0.382521 -0.874401 1.41949 0.876592
3128 1 5.36 2.06 28.0294 -0.366243 -1.58903 1.40303 -0.800856
3129 1 8.56 7.59 37.0594 -0.416319 -0.455297 -0.090664 0.376226
3130 1 10.51 5.81 33.5494 -0.394248 0.641318 1.45688 0.242589
3131 1 2.37 6.23 36.9894 -0.416527 -0.176572 0.565295 1.08143
3132 1 0.3 8.77 34.9394 -0.378106 1.90131 0.678153 1.19047
3133 1 9.47 12.13 32.4594 -0.329556 -1.40441 0.150352 0.698003
3134 1 1.41 2.32 29.0594 -0.409847 -0.897525 2.0305 -1.61843
3135 1 9.69 3.69 28.4494 -0.385427 -0.312374 -0.0177714 0.00845259
3136 1 0.75 9.22 32.2794 -0.389397 -0.0507527 -1.95381 0.371102
3137 2 11.09 2.87 27.6294 0.191006 0.242626 0.249613 -0.242642
3138 2 5.51 5.51 27.4894 0.193884 0.173008 -0.778941 1.25697
3139 2 0.24 6.8 28.1794 0.202655 0.689784 -0.383494 1.0841
3140 2 4.28 4.19 29.3494 0.17904 -0.617829 0.498775 0.550844
3141 2 3.63 11.56 36.6494 0.196223 -1.92571 -0.273383 -0.129463
3142 2 6.53 12.07 26.8794 0.175621 -0.0035839 -0.0767677 0.0487044
3143 2 5.37 9.14 35.7394 0.192167 0.344514 0.250793 -0.896801
3144 2 5.74 10.31 26.5294 0.184005 0.0441895 0.251692 0.0827975
3145 2 8.71 11.07 25.2994 0.177629 0.422548 -0.0590917 -0.677229
3146 2 0.27 1.04 33.1594 0.173441 -1.12377 -0.989632 0.443623
3147 2 5.46 7.08 36.0394 0.180688 0.237304 0.266785 0.0569
3148 2 3.84 4.17 25.9494 0.193773 -0.430974 -1.59744 0.0114872
3149 2 11.55 10.19 29.0394 0.193319 -0.344367 -0.238322 -0.197749
3150 2 3 8.17 27.0294 0.185159 0.135049 -0.0815666 -0.0868313
3151 2 9.53 10.04 35.4494 0.183595 0.0382085 -1.11775 -0.571176
3152 2 11.18 4.84 30.9394 0.169879 -0.438844 0.441055 -1.51322
3153 2 0.68 3.76 37.3294 0.177371 -0.291534 -0.537379 -0.242279
3154 2 0.43 5.51 29.7694 0.191063 -0.911684 -0.445063 0.172008
3155 2 9.51 9.48 28.8294 0.198767 -0.7779 0.453492 0.70958
3156 2 9.08 5.89 34.5694 0.183631 -0.873518 -0.131877 0.694452
3157 2 7.92 3.83 25.6894 0.157297 -0.370775 1.99011 0.390008
3158 2 4.23 3.22 33.0994 0.191194 -1.42391 0.14027 -0.00568705
3159 2 5.27 5.9 33.0794 0.18637 0.231107 -0.0760456 -0.40639
3160 2 4.44 10.9 28.0294 0.186774 -0.369908 -0.593135 0.691874
3161 2 6.93 4.56 29.7794 0.1968 0.140634 0.23838 0.137513
3162 2 11.88 1.61 36.6394 0.177225 0.613574 1.15346 -0.980064
3163 2 6.79 8.54 27.9794 0.175368 0.0995737 0.218338 0.449138
3164 2 5.62 4.99 35.0194 0.221124 0.00680538 -0.644036 0.236309
3165 2 3.09 6.66 31.8694 0.191091 1.4339 -0.115646 0.191252
3166 2 11.73 8.22 31.7494 0.191113 -0.60043 -0.543269 -0.019584
3167 2 8.4 3.45 31.0694 0.180758 0.299552 0.121721 0.376306
3168 2 4.64 2.37 37.0494 0.183436 0.773999 -0.148305 -0.517188
3169 2 0.74 11.69 28.7494 0.193332 1.24462 0.486264 -0.165089
3170 2 1.1 5.3 34.6094 0.198266 -0.394055 -0.6075 0.47683
3171 2 7.54 9.11 25.7194 0.192116 -0.0556478 -0.517782 -0.239867
3172 2 11.36 6.2 36.7894 0.192143 -0.194155 -0.0569402 0.0439445
3173 2 5.85 2.21 32.4194 0.183621 0.49782 1.05772 0.321715
3174 2 8.81 2.01 34.7794 0.182684 0.011806 -0.0968981 -0.0594894
3175 2 2.17 2.43 32.3494 0.202487 -1.14914 -0.1704 -0.334919
3176 2 10.1 2.53 31.4394 0.181258 0.112983 -0.135615 -0.230568
3177 2 9.07 4.29 35.7994 0.184907 -0.265498 -0.504577 0.000999036
3178 2 0.64 8.13 26.3394 0.199679 0.509353 0.674747 -0.308521
3179 2 11.12 4.2 33.0294 0.202259 -0.183431 0.403095 0.312231
3180 2 11.03 12.03 25.4694 0.195342 0.754077 1.17492 0.0467474
3181 2 6.83 1.84 37.0794 0.187672 -0.296851 0.227236 0.205534
3182 2 9.13 10.45 32.1394 0.185572 -0.160223 0.106185 -0.443089
3183 2 1.76 12.44 31.6894 0.185592 -1.18377 1.35742 -0.0950424
3184 2 7.37 11.88 29.9694 0.175797 0.637193 -0.474302 -0.169084
3185 2 5.59 8.29 32.3294 0.218995 0.0580468 -0.600365 -0.1823
3186 2 8.14 12.12 35.7494 0.195424 -0.210884 -1.20674 0.445493
3187 2 5.48 0.06 31.2094 0.18894 0.122003 0.40854 -0.0842235
3188 2 0.99 11.99 25.2994 0.187845 0.420676 0.019973 0.498787
3189 2 4.54 10.95 30.6794 0.183359 -0.0166751 0.13049 0.932403
3190 2 10.94 6.29 26.5394 0.201455 -0.0271598 0.593438 -0.475453
3191 2 2.52 10.55 34.6494 0.218255 1.17315 -0.879292 -1.41999
3192 2 4.74 2.41 27.3094 0.184875 0.756461 -0.550815 1.19336
3193 2 8.84 8.27 36.4494 0.185768 0.648361 0.25355 -0.371433
3194 2 10.89 6.06 34.4694 0.177024 -0.14997 -0.450756 -1.36989
3195 2 2.15 5.99 36.0694 0.183133 0.198163 0.153307 -0.208428
3196 2 0.49 9.06 34.0194 0.170818 -0.195461 -0.175685 0.133083
3197 2 8.69 12.34 33.0394 0.197812 0.866186 0.118062 -0.768147
3198 2 1.76 1.44 28.9594 0.192691 -0.221688 -1.01336 -0.53142
3199 2 10.05 4.44 28.9894 0.192316 -0.12598 -0.745357 -0.0156548
3200 2 1.44 8.49 32.2094 0.197896 -0.576758 0.967148 -0.266635
3201 2 12.25 3.32 26.5694 0.205745 -0.637712 -0.790005 0.707791
3202 2 6.27 6.22 26.4494 0.19505 -0.288686 -0.189985 -0.310418
3203 2 11.5 7.85 28.0294 0.211303 -0.832448 0.597929 0.813036
3204 2 2.96 3.44 29.4994 0.180348 -0.533166 -0.0679099 0.0315805
3205 2 5.04 11.17 36.1894 0.203951 0.127406 -0.38107 -0.58508
3206 2 7.6 12.39 27.9194 0.186687 0.821807 -0.728669 2.61794
3207 2 5.94 9.68 34.2594 0.201527 -0.668952 -0.412466 0.824222
3208 2 4.93 11.46 25.8494 0.19224 -0.183046 0.0484205 -0.0612114
3209 2 8.92 11.68 26.5794 0.18221 -0.842571 1.45775 1.60211
3210 2 12.07 1.36 34.4294 0.171108 -0.388878 0.418082 1.32789
3211 2 4.17 7.28 36.6894 0.187175 -1.26448 -0.13249 0.621876
3212 2 2.67 3.09 25.9394 0.196792 0.335564 0.328204 0.0513128
3213 2 11.89 10.59 30.4494 0.212694 0.132246 -0.756142 2.53351
3214 2 4.27 7.23 27.0494 0.187745 0.0819563 0.0437421 -0.0145393
3215 2 10.8 9.22 35.0694 0.189919 -0.381738 -0.312462 0.00070986
3216 2 10.68 6.2 30.3294 0.199547 0.402558 -0.469576 -0.0890435
3217 2 1.51 4.9 25.4194 0.18783 -0.395809 -0.206713 0.454048
3218 2 1.94 5.36 29.4994 0.202921 1.01914 -0.676944 -0.24607
3219 2 10.02 9.64 27.3594 0.193894 -0.0946609 -0.934644 1.59328
3220 2 8.41 6.43 35.9294 0.181308 0.148158 0.822071 0.80341
3221 2 8.58 4.29 26.8994 0.171346 -0.324579 0.687864 0.564189
3222 2 3.12 4.28 33.2994 0.186041 -0.390224 -0.00352401 0.188237
3223 2 5.12 5.54 31.4894 0.200548 0.113949 0.0927138 0.568114
3224 2 3.97 9.58 28.7794 0.200319 -0.122318 0.40459 -0.3633
3225 2 6.17 3.63 28.7894 0.180499 0.0639775 0.428578 0.0335283
3226 2 11.4 2.92 35.8794 0.186121 0.0360164 -0.322511 0.13069
3227 2 5.96 8.02 29.1494 0.206263 1.14918 0.802718 -0.0191877
3228 2 6.81 5.9 34.7194 0.201106 2.05205 -0.296835 0.216444
3229 2 1.83 6.59 31.0494 0.187749 -0.772061 -0.352092 -1.05867
3230 2 10.19 8.36 31.7694 0.185475 -0.393799 -0.00300809 -0.0332426
3231 2 8.74 4.67 32.0094 0.196504 -0.744389 -0.329142 -0.441247
3232 2 4.84 1.08 36.2694 0.193742 0.366899 -0.114322 0.0286716
3233 2 2.38 11.71 28.5894 0.187953 -1.23535 0.0337361 0.0339453
3234 2 2.02 6.1 33.8094 0.193418 0.561638 -0.413336 0.78987
3235 2 6.05 8.48 25.4994 0.185432 1.45642 0.977457 0.978247
3236 2 12.12 7.05 35.6994 0.183182 0.124921 0.275229 0.110933
3237 2 6.81 3.46 32.1994 0.173814 -1.21254 -0.276882 1.47208
3238 2 7.52 1.99 33.9894 0.171167 0.337107 -0.725414 0.216971
3239 2 1.25 2.26 31.0694 0.198333 -0.100624 0.233894 -1.44322
3240 2 9.31 1.19 31.2394 0.177467 0.392012 1.8779 -1.00921
3241 2 8.84 2.9 36.5794 0.189554 0.0720178 0.182717 -0.115895
3242 2 1.39 9.44 25.7394 0.203751 -0.146569 0.597101 0.00257599
3243 2 12.13 3.22 32.3894 0.198004 2.70529 -1.03041 0.0528921
3244 2 11.38 0.95 26.2294 0.189016 1.08992 -0.904656 -1.35612
3245 2 7.43 1.82 26.1294 0.192864 0.551771 -0.285854 -1.97598
3246 2 9.15 9.43 33.1694 0.178034 0.441239 -0.710187 2.23728
3247 2 2.97 11.66 31.7694 0.189438 0.458817 -0.880805 0.139719
3248 2 7.5 10.43 29.3594 0.181809 0.703656 1.2892 0.431933
3249 2 6.69 9.4 32.3594 0.206108 2.27194 -0.0386648 -0.808168
3250 2 7.29 10.77 35.8194 0.190335 -0.341824 -0.0505498 -0.227421
3251 2 5.45 1.07 30.0094 0.197986 -0.0709374 0.236632 -0.237729
3252 2 1.92 11.57 26.5094 0.180734 -0.408996 0.66742 -0.854418
3253 2 5.05 10.55 32.1494 0.212011 -0.24812 -0.14402 -0.376941
3254 2 9.73 5.52 25.9994 0.183029 -0.544845 -0.0114399 -0.51461
3255 2 1.73 11.85 34.7094 0.204137 -0.0844976 -0.535798 0.289287
3256 2 6.02 1.57 27.5594 0.17257 0.700395 -0.752364 -0.238805
3257 2 9.34 7.2 25.0994 0.198757 -0.392298 0.548759 -0.176812
3258 2 10.71 6.56 32.8594 0.182266 -0.323124 -1.06154 1.28721
3259 2 1.86 7.03 37.2594 0.189126 0.48067 -0.368931 -0.146714
3260 2 1.08 9.16 35.4794 0.184945 -2.28758 -0.741726 -1.18024
3261 2 10.19 12.39 33.0394 0.190646 0.843633 0.202312 0.026803
3262 2 0.92 2.56 28.1694 0.175966 0.878421 -1.05619 2.45229
3263 2 9.34 3.01 29.0594 0.202541 0.483853 0.409851 -0.157725
3264 2 1.11 10.09 32.0994 0.213346 0.786975 0.737274 -0.312217
3265 1 24.2747 2.56 27.0694 -0.418491 0.276303 0.657262 -0.200488
3266 1 17.8047 6 26.6994 -0.356018 0.340912 0.424401 -0.894498
3267 1 24.6147 7.34 27.5994 -0.375672 0.108622 -0.210962 -1.85837
3268 1 15.8247 4.28 29.7294 -0.401225 0.921464 -0.302103 -0.574788
3269 1 16.9847 11.73 36.7894 -0.352543 1.21089 0.715065 0.323253
3270 1 19.7847 0.18 27.0694 -0.375672 -0.527901 1.2055 -1.95308
3271 1 18.1747 9.9 35.1994 -0.425659 0.260784 0.043864 0.365836
3272 1 17.7647 11.19 26.7194 -0.352291 -0.145308 -0.360897 0.00938757
3273 1 21.8347 11.14 25.9894 -0.384824 0.87238 -1.54218 -0.918667
3274 1 24.5047 0.64 33.8094 -0.432941 1.38581 0.308646 -1.86882
3275 1 17.4547 7.72 36.6294 -0.331212 1.05763 -0.0925308 -0.578502
3276 1 16.0847 3.19 25.9694 -0.329396 0.449036 1.35172 0.0296337
3277 1 24.3247 10.9 29.5894 -0.392604 0.205199 1.05594 -2.45392
3278 1 16.3247 8.05 27.3994 -0.464721 -0.26885 0.35597 0.230425
3279 1 22.2647 9.16 35.0694 -0.365582 0.339085 1.66959 0.48716
3280 1 23.4447 5.31 30.0594 -0.319963 0.138432 0.0561266 1.91457
3281 1 13.4147 4.12 25.7294 -0.355457 0.74518 0.775291 -0.73772
3282 1 13.6847 5.99 29.6494 -0.374759 -0.193306 0.928638 -0.3549
3283 1 22.5447 9.09 28.2094 -0.354104 0.910882 0.645123 -2.49255
3284 1 20.8347 5.72 35.2794 -0.373467 0.806807 -0.606237 -1.83735
3285 1 20.5047 4.72 26.1894 -0.36779 0.704119 -2.90777 -0.607338
3286 1 15.6747 3.34 33.1494 -0.401808 2.13811 -0.397564 -0.157464
3287 1 17.4647 6.21 32.1794 -0.410387 -0.430401 0.36638 -0.264968
3288 1 16.3847 10.55 28.8394 -0.402417 0.43344 0.317444 -0.058437
3289 1 18.6947 4.56 29.0994 -0.380615 -0.393397 -0.784973 -0.26842
3290 1 24.6247 2.35 35.9994 -0.382164 -0.84741 -0.742865 1.12304
3291 1 19.2047 8.57 28.9594 -0.403469 -1.14817 -0.761868 -0.553721
3292 1 18.3147 5.84 34.6794 -0.349098 -2.3036 0.637173 -0.272956
3293 1 14.6247 6.91 31.8794 -0.400385 -0.465998 0.744019 1.54717
3294 1 23.3347 7.69 31.6694 -0.350546 0.885557 0.570858 0.0353123
3295 1 20.4747 4.28 31.4594 -0.327249 0.482355 0.0230795 -0.0798746
3296 1 17.7347 1.92 36.4494 -0.42046 -1.16668 0.35203 0.519712
3297 1 13.9747 12.16 28.3394 -0.410573 0.41122 -0.955772 0.467827
3298 1 14.4847 5.49 34.5994 -0.307416 -0.56749 1.07234 -2.10708
3299 1 19.1047 9.05 26.0994 -0.337037 -1.61842 -1.07736 -0.670216
3300 1 24.1947 6.18 35.8994 -0.375509 0.109212 0.0673839 -0.490533
3301 1 18.5547 3.07 32.8494 -0.386894 0.529689 -0.930134 -1.62597
3302 1 20.6647 1.38 34.3194 -0.395924 -0.580879 0.677691 -0.139495
3303 1 13.7547 2.02 31.9794 -0.381656 1.03094 0.0207544 1.57358
3304 1 21.9247 2.11 30.8094 -0.386543 -0.466576 -1.803 1.20747
3305 1 21.7747 3.34 35.8594 -0.415653 0.367262 -0.15698 0.177803
3306 1 13.7547 8.49 25.6994 -0.391659 -0.324857 -1.1443 0.312406
3307 1 23.6947 3.48 32.3994 -0.362952 -2.5133 0.883599 -0.600295
3308 1 24.1447 0.33 25.4894 -0.377211 -1.74592 -0.072047 1.00754
3309 1 20.0747 2.04 25.1694 -0.388923 0.179885 0.446092 1.55241
3310 1 21.3047 9.52 32.2894 -0.387579 -0.342424 0.41214 -1.61057
3311 1 14.4547 11.54 31.7794 -0.409735 0.352718 -0.503285 0.166536
3312 1 20.4647 11.27 29.5494 -0.386294 -1.67359 -0.912966 -0.155668
3313 1 18.2647 9.18 32.5994 -0.322041 -1.62594 0.149829 0.939799
3314 1 20.5547 11.19 36.1094 -0.34445 0.363582 1.2492 -0.544037
3315 1 18.3847 0.84 30.7994 -0.430297 0.345369 0.00806869 0.132062
3316 1 14.3247 11.66 25.5294 -0.447611 -0.049677 -0.645402 0.598321
3317 1 17.1047 11.28 31.6194 -0.350743 -0.301486 -0.466332 -1.15941
3318 1 22.7647 6.26 25.7794 -0.326365 0.996671 -0.777104 1.09356
3319 1 14.4547 11.07 35.2194 -0.382522 -0.874417 1.41951 0.876601
3320 1 17.8047 2.06 28.0294 -0.366244 -1.58904 1.40304 -0.800865
3321 1 21.0047 7.59 37.0594 -0.416319 -0.45526 -0.0906611 0.376229
3322 1 22.9547 5.81 33.5494 -0.394248 0.641307 1.45687 0.242586
3323 1 14.8147 6.23 36.9894 -0.416527 -0.176581 0.5653 1.08143
3324 1 12.7447 8.77 34.9394 -0.378106 1.9013 0.678149 1.19047
3325 1 21.9147 12.13 32.4594 -0.329557 -1.40431 0.150361 0.698015
3326 1 13.8547 2.32 29.0594 -0.409848 -0.897521 2.0305 -1.61843
3327 1 22.1347 3.69 28.4494 -0.385425 -0.312394 -0.0178016 0.00844374
3328 1 13.1947 9.22 32.2794 -0.389396 -0.0507667 -1.95381 0.371105
3329 2 23.5347 2.87 27.6294 0.191006 0.242624 0.249615 -0.24264
3330 2 17.9547 5.51 27.4894 0.193884 0.17301 -0.77894 1.25697
3331 2 12.6847 6.8 28.1794 0.202655 0.689784 -0.383493 1.0841
3332 2 16.7247 4.19 29.3494 0.179041 -0.617849 0.498777 0.550852
3333 2 16.0747 11.56 36.6494 0.196223 -1.92571 -0.273382 -0.129461
3334 2 18.9747 12.07 26.8794 0.175621 -0.00359345 -0.0767731 0.0487043
3335 2 17.8147 9.14 35.7394 0.192167 0.34452 0.250797 -0.896805
3336 2 18.1847 10.31 26.5294 0.184005 0.0441867 0.251696 0.0827999
3337 2 21.1547 11.07 25.2994 0.17763 0.422549 -0.0590895 -0.677227
3338 2 12.7147 1.04 33.1594 0.173441 -1.12375 -0.989624 0.44361
3339 2 17.9047 7.08 36.0394 0.180688 0.237318 0.266776 0.0568884
3340 2 16.2847 4.17 25.9494 0.193773 -0.430979 -1.59744 0.011487
3341 2 23.9947 10.19 29.0394 0.193319 -0.344368 -0.238323 -0.19775
3342 2 15.4447 8.17 27.0294 0.185159 0.135013 -0.081565 -0.0868487
3343 2 21.9747 10.04 35.4494 0.183594 0.038199 -1.11774 -0.571173
3344 2 23.6247 4.84 30.9394 0.169879 -0.438844 0.441056 -1.51323
3345 2 13.1247 3.76 37.3294 0.177372 -0.291533 -0.537378 -0.242279
3346 2 12.8747 5.51 29.7694 0.191063 -0.911664 -0.445052 0.172005
3347 2 21.9547 9.48 28.8294 0.198767 -0.777901 0.453492 0.70958
3348 2 21.5247 5.89 34.5694 0.18363 -0.873538 -0.131884 0.694467
3349 2 20.3647 3.83 25.6894 0.157297 -0.370779 1.99011 0.390006
3350 2 16.6747 3.22 33.0994 0.191194 -1.4239 0.140267 -0.00568675
3351 2 17.7147 5.9 33.0794 0.18637 0.231107 -0.0760475 -0.406387
3352 2 16.8847 10.9 28.0294 0.186774 -0.369908 -0.593136 0.691873
3353 2 19.3747 4.56 29.7794 0.1968 0.140624 0.23838 0.137504
3354 2 24.3247 1.61 36.6394 0.177225 0.613581 1.15346 -0.980071
3355 2 19.2347 8.54 27.9794 0.175367 0.0995776 0.218341 0.449137
3356 2 18.0647 4.99 35.0194 0.221124 0.00680641 -0.644037 0.236309
3357 2 15.5347 6.66 31.8694 0.191091 1.43385 -0.115633 0.191254
3358 2 24.1747 8.22 31.7494 0.191113 -0.600455 -0.543287 -0.019586
3359 2 20.8447 3.45 31.0694 0.180758 0.299561 0.121711 0.376304
3360 2 17.0847 2.37 37.0494 0.183436 0.773992 -0.148304 -0.517184
3361 2 13.1847 11.69 28.7494 0.193332 1.24462 0.486264 -0.165089
3362 2 13.5447 5.3 34.6094 0.198266 -0.394022 -0.607495 0.47683
3363 2 19.9847 9.11 25.7194 0.192117 -0.055607 -0.51778 -0.239885
3364 2 23.8047 6.2 36.7894 0.192143 -0.194162 -0.0569429 0.0439575
3365 2 18.2947 2.21 32.4194 0.18362 0.49782 1.05772 0.321716
3366 2 21.2547 2.01 34.7794 0.182684 0.011809 -0.0969018 -0.0594875
3367 2 14.6147 2.43 32.3494 0.202488 -1.14915 -0.170404 -0.334919
3368 2 22.5447 2.53 31.4394 0.181258 0.112983 -0.135617 -0.230565
3369 2 21.5147 4.29 35.7994 0.184907 -0.265498 -0.50458 0.00100017
3370 2 13.0847 8.13 26.3394 0.199679 0.509356 0.674747 -0.308522
3371 2 23.5647 4.2 33.0294 0.202259 -0.183426 0.40309 0.312228
3372 2 23.4747 12.03 25.4694 0.195342 0.754044 1.17489 0.0467465
3373 2 19.2747 1.84 37.0794 0.187672 -0.296872 0.227229 0.205525
3374 2 21.5747 10.45 32.1394 0.185572 -0.160214 0.106205 -0.443091
3375 2 14.2047 12.44 31.6894 0.185592 -1.18377 1.35742 -0.0950428
3376 2 19.8147 11.88 29.9694 0.175797 0.637211 -0.474315 -0.169094
3377 2 18.0347 8.29 32.3294 0.218995 0.058045 -0.600371 -0.182301
3378 2 20.5847 12.12 35.7494 0.195423 -0.210875 -1.20674 0.445494
3379 2 17.9247 0.06 31.2094 0.188941 0.122014 0.408548 -0.0842239
3380 2 13.4347 11.99 25.2994 0.187845 0.420687 0.0199686 0.49879
3381 2 16.9847 10.95 30.6794 0.183359 -0.0166708 0.13049 0.932405
3382 2 23.3847 6.29 26.5394 0.201455 -0.027178 0.593437 -0.47547
3383 2 14.9647 10.55 34.6494 0.218255 1.17316 -0.879304 -1.42001
3384 2 17.1847 2.41 27.3094 0.184875 0.756471 -0.550821 1.19336
3385 2 21.2847 8.27 36.4494 0.185769 0.648351 0.25354 -0.371425
3386 2 23.3347 6.06 34.4694 0.177024 -0.149963 -0.450753 -1.36988
3387 2 14.5947 5.99 36.0694 0.183133 0.198166 0.153307 -0.208424
3388 2 12.9347 9.06 34.0194 0.170818 -0.195459 -0.175683 0.133079
3389 2 21.1347 12.34 33.0394 0.197812 0.866136 0.118074 -0.768114
3390 2 14.2047 1.44 28.9594 0.192691 -0.221691 -1.01335 -0.53142
3391 2 22.4947 4.44 28.9894 0.192316 -0.125967 -0.745337 -0.0156405
3392 2 13.8847 8.49 32.2094 0.197897 -0.576747 0.96714 -0.266637
3393 2 24.6947 3.32 26.5694 0.205745 -0.637712 -0.790005 0.707791
3394 2 18.7147 6.22 26.4494 0.19505 -0.288687 -0.189986 -0.310415
3395 2 23.9447 7.85 28.0294 0.211303 -0.832449 0.59793 0.813036
3396 2 15.4047 3.44 29.4994 0.180348 -0.533166 -0.0679098 0.0315802
3397 2 17.4847 11.17 36.1894 0.203951 0.127405 -0.38107 -0.58508
3398 2 20.0447 12.39 27.9194 0.186687 0.821804 -0.728668 2.61794
3399 2 18.3847 9.68 34.2594 0.201526 -0.668956 -0.412466 0.82423
3400 2 17.3747 11.46 25.8494 0.192241 -0.183055 0.0484248 -0.0612204
3401 2 21.3647 11.68 26.5794 0.18221 -0.842585 1.45777 1.60213
3402 2 24.5147 1.36 34.4294 0.171108 -0.388881 0.418083 1.32789
3403 2 16.6147 7.28 36.6894 0.187175 -1.26448 -0.132486 0.621878
3404 2 15.1147 3.09 25.9394 0.196793 0.335532 0.328203 0.0513118
3405 2 24.3347 10.59 30.4494 0.212694 0.132245 -0.756142 2.53351
3406 2 16.7147 7.23 27.0494 0.187744 0.081943 0.0437619 -0.0145331
3407 2 23.2447 9.22 35.0694 0.18992 -0.381693 -0.312464 0.000707294
3408 2 23.1247 6.2 30.3294 0.199547 0.402558 -0.469577 -0.0890426
3409 2 13.9547 4.9 25.4194 0.18783 -0.395822 -0.206728 0.454052
3410 2 14.3847 5.36 29.4994 0.202921 1.01914 -0.676948 -0.246072
3411 2 22.4647 9.64 27.3594 0.193894 -0.0946621 -0.934645 1.59328
3412 2 20.8547 6.43 35.9294 0.181308 0.148154 0.822069 0.80341
3413 2 21.0247 4.29 26.8994 0.171346 -0.32459 0.687873 0.564177
3414 2 15.5647 4.28 33.2994 0.186041 -0.390226 -0.00352213 0.188237
3415 2 17.5647 5.54 31.4894 0.200548 0.113952 0.0927074 0.568109
3416 2 16.4147 9.58 28.7794 0.200319 -0.122316 0.40459 -0.363302
3417 2 18.6147 3.63 28.7894 0.180499 0.0639788 0.428578 0.0335286
3418 2 23.8447 2.92 35.8794 0.186121 0.0360167 -0.322509 0.130688
3419 2 18.4047 8.02 29.1494 0.206262 1.14921 0.802736 -0.0191914
3420 2 19.2547 5.9 34.7194 0.201106 2.05202 -0.296838 0.216444
3421 2 14.2747 6.59 31.0494 0.187749 -0.772065 -0.352095 -1.05868
3422 2 22.6347 8.36 31.7694 0.185475 -0.393847 -0.00296883 -0.033237
3423 2 21.1847 4.67 32.0094 0.196504 -0.744366 -0.329134 -0.441234
3424 2 17.2847 1.08 36.2694 0.193743 0.366888 -0.114336 0.0286693
3425 2 14.8247 11.71 28.5894 0.187953 -1.23535 0.0337385 0.0339434
3426 2 14.4647 6.1 33.8094 0.193418 0.561641 -0.413336 0.789869
3427 2 18.4947 8.48 25.4994 0.185432 1.45643 0.977466 0.978257
3428 2 24.5647 7.05 35.6994 0.183182 0.12493 0.275243 0.110927
3429 2 19.2547 3.46 32.1994 0.173814 -1.21253 -0.27688 1.47208
3430 2 19.9647 1.99 33.9894 0.171167 0.337074 -0.725393 0.216956
3431 2 13.6947 2.26 31.0694 0.198333 -0.100626 0.233893 -1.44322
3432 2 21.7547 1.19 31.2394 0.177467 0.392017 1.8779 -1.00921
3433 2 21.2847 2.9 36.5794 0.189554 0.0720173 0.182717 -0.115896
3434 2 13.8347 9.44 25.7394 0.203751 -0.146569 0.597101 0.00257658
3435 2 24.5747 3.22 32.3894 0.198004 2.70535 -1.03042 0.0528947
3436 2 23.8247 0.95 26.2294 0.189016 1.08992 -0.904657 -1.35612
3437 2 19.8747 1.82 26.1294 0.192864 0.551761 -0.285857 -1.97597
3438 2 21.5947 9.43 33.1694 0.178034 0.441242 -0.710185 2.23728
3439 2 15.4147 11.66 31.7694 0.189438 0.45886 -0.880801 0.139719
3440 2 19.9447 10.43 29.3594 0.181809 0.703657 1.2892 0.431932
3441 2 19.1347 9.4 32.3594 0.206108 2.27188 -0.0386765 -0.808154
3442 2 19.7347 10.77 35.8194 0.190335 -0.34176 -0.0505247 -0.227397
3443 2 17.8947 1.07 30.0094 0.197986 -0.0709157 0.236626 -0.237699
3444 2 14.3647 11.57 26.5094 0.180733 -0.408995 0.66742 -0.854417
3445 2 17.4947 10.55 32.1494 0.212011 -0.248112 -0.144031 -0.376935
3446 2 22.1747 5.52 25.9994 0.183029 -0.544843 -0.0114381 -0.514608
3447 2 14.1747 11.85 34.7094 0.204137 -0.084494 -0.535806 0.289292
3448 2 18.4647 1.57 27.5594 0.172569 0.700395 -0.752365 -0.238806
3449 2 21.7847 7.2 25.0994 0.198757 -0.392324 0.548768 -0.176824
3450 2 23.1547 6.56 32.8594 0.182266 -0.323121 -1.06154 1.28721
3451 2 14.3047 7.03 37.2594 0.189127 0.480675 -0.368936 -0.146715
3452 2 13.5247 9.16 35.4794 0.184945 -2.28758 -0.741723 -1.18023
3453 2 22.6347 12.39 33.0394 0.190646 0.843579 0.202293 0.0267589
3454 2 13.3647 2.56 28.1694 0.175966 0.878419 -1.05619 2.45229
3455 2 21.7847 3.01 29.0594 0.20254 0.483859 0.40986 -0.157732
3456 2 13.5547 10.09 32.0994 0.213347 0.78698 0.737279 -0.312219
3457 1 11.83 15.0047 27.0694 -0.418491 0.276297 0.657271 -0.200484
3458 1 5.36 18.4447 26.6994 -0.356019 0.340915 0.424394 -0.894493
3459 1 12.17 19.7847 27.5994 -0.375672 0.10863 -0.210972 -1.85834
3460 1 3.38 16.7247 29.7294 -0.401225 0.921428 -0.302137 -0.57479
3461 1 4.54 24.1747 36.7894 -0.352543 1.21087 0.715061 0.323248
3462 1 7.34 12.6247 27.0694 -0.375672 -0.527899 1.20553 -1.95313
3463 1 5.73 22.3447 35.1994 -0.425659 0.260773 0.0438427 0.365849
3464 1 5.32 23.6347 26.7194 -0.352291 -0.145287 -0.360956 0.00938148
3465 1 9.39 23.5847 25.9894 -0.384824 0.872349 -1.54214 -0.918625
3466 1 12.06 13.0847 33.8094 -0.432941 1.38579 0.30865 -1.86881
3467 1 5.01 20.1647 36.6294 -0.331211 1.05766 -0.0925126 -0.578508
3468 1 3.64 15.6347 25.9694 -0.329397 0.449007 1.35174 0.0296326
3469 1 11.88 23.3447 29.5894 -0.392604 0.20521 1.05597 -2.4539
3470 1 3.88 20.4947 27.3994 -0.464721 -0.26891 0.356014 0.230423
3471 1 9.82 21.6047 35.0694 -0.365582 0.339122 1.66957 0.487146
3472 1 11 17.7547 30.0594 -0.319962 0.138438 0.0561152 1.91456
3473 1 0.97 16.5647 25.7294 -0.355457 0.745184 0.775299 -0.737704
3474 1 1.24 18.4347 29.6494 -0.374759 -0.193295 0.928655 -0.354903
3475 1 10.1 21.5347 28.2094 -0.354106 0.910881 0.645112 -2.49253
3476 1 8.39 18.1647 35.2794 -0.373468 0.806788 -0.606217 -1.83731
3477 1 8.06 17.1647 26.1894 -0.36779 0.704107 -2.90775 -0.607341
3478 1 3.23 15.7847 33.1494 -0.401809 2.13811 -0.397558 -0.157463
3479 1 5.02 18.6547 32.1794 -0.410387 -0.430398 0.366377 -0.26498
3480 1 3.94 22.9947 28.8394 -0.402417 0.433449 0.317493 -0.0584494
3481 1 6.25 17.0047 29.0994 -0.380615 -0.393408 -0.78499 -0.268437
3482 1 12.18 14.7947 35.9994 -0.382165 -0.847417 -0.742848 1.12303
3483 1 6.76 21.0147 28.9594 -0.403469 -1.14815 -0.761852 -0.553731
3484 1 5.87 18.2847 34.6794 -0.349098 -2.30362 0.637168 -0.272959
3485 1 2.18 19.3547 31.8794 -0.400384 -0.466047 0.744028 1.54716
3486 1 10.89 20.1347 31.6694 -0.350546 0.885448 0.570869 0.035314
3487 1 8.03 16.7247 31.4594 -0.327248 0.482391 0.0230503 -0.0798775
3488 1 5.29 14.3647 36.4494 -0.42046 -1.1667 0.352004 0.519711
3489 1 1.53 24.6047 28.3394 -0.410573 0.411243 -0.955769 0.467823
3490 1 2.04 17.9347 34.5994 -0.307416 -0.567461 1.07235 -2.10709
3491 1 6.66 21.4947 26.0994 -0.337037 -1.61836 -1.07733 -0.670212
3492 1 11.75 18.6247 35.8994 -0.375509 0.109189 0.0673377 -0.490518
3493 1 6.11 15.5147 32.8494 -0.386894 0.529708 -0.93012 -1.62598
3494 1 8.22 13.8247 34.3194 -0.395923 -0.580904 0.677705 -0.139508
3495 1 1.31 14.4647 31.9794 -0.381656 1.03092 0.0207508 1.57357
3496 1 9.48 14.5547 30.8094 -0.386543 -0.466575 -1.803 1.20747
3497 1 9.33 15.7847 35.8594 -0.415654 0.367266 -0.157033 0.177815
3498 1 1.31 20.9347 25.6994 -0.391659 -0.324855 -1.14426 0.312413
3499 1 11.25 15.9247 32.3994 -0.362951 -2.51323 0.883568 -0.600305
3500 1 11.7 12.7747 25.4894 -0.377211 -1.74599 -0.0721339 1.00754
3501 1 7.63 14.4847 25.1694 -0.388923 0.179851 0.446079 1.55241
3502 1 8.86 21.9647 32.2894 -0.387579 -0.342417 0.412118 -1.61055
3503 1 2.01 23.9847 31.7794 -0.409735 0.352733 -0.503175 0.166524
3504 1 8.02 23.7147 29.5494 -0.386294 -1.67356 -0.912998 -0.155689
3505 1 5.82 21.6247 32.5994 -0.322041 -1.62601 0.149771 0.939797
3506 1 8.11 23.6347 36.1094 -0.344451 0.363641 1.24915 -0.543993
3507 1 5.94 13.2847 30.7994 -0.430297 0.345395 0.00805722 0.132101
3508 1 1.88 24.1047 25.5294 -0.447611 -0.0496633 -0.645408 0.598324
3509 1 4.66 23.7247 31.6194 -0.350743 -0.301454 -0.46641 -1.15939
3510 1 10.32 18.7047 25.7794 -0.326365 0.996668 -0.777102 1.09354
3511 1 2.01 23.5147 35.2194 -0.382522 -0.874379 1.41946 0.87657
3512 1 5.36 14.5047 28.0294 -0.366243 -1.58904 1.40304 -0.800857
3513 1 8.56 20.0347 37.0594 -0.41632 -0.455287 -0.0906747 0.37623
3514 1 10.51 18.2547 33.5494 -0.394248 0.641318 1.45688 0.242583
3515 1 2.37 18.6747 36.9894 -0.416527 -0.176593 0.565322 1.08144
3516 1 0.3 21.2147 34.9394 -0.378106 1.90131 0.678146 1.19048
3517 1 9.47 24.5747 32.4594 -0.329557 -1.40442 0.150358 0.69801
3518 1 1.41 14.7647 29.0594 -0.409847 -0.897519 2.03049 -1.61843
3519 1 9.69 16.1347 28.4494 -0.385426 -0.312379 -0.0177797 0.00845252
3520 1 0.75 21.6647 32.2794 -0.389396 -0.0507526 -1.95375 0.371094
3521 2 11.09 15.3147 27.6294 0.191006 0.24263 0.249609 -0.242644
3522 2 5.51 17.9547 27.4894 0.193884 0.173006 -0.778941 1.25697
3523 2 0.24 19.2447 28.1794 0.202655 0.689767 -0.383475 1.08408
3524 2 4.28 16.6347 29.3494 0.17904 -0.617829 0.498775 0.550844
3525 2 3.63 24.0047 36.6494 0.196223 -1.92569 -0.27338 -0.12946
3526 2 6.53 24.5147 26.8794 0.175621 -0.00357355 -0.0767553 0.0487014
3527 2 5.37 21.5847 35.7394 0.192167 0.344523 0.250814 -0.896811
3528 2 5.74 22.7547 26.5294 0.184005 0.0441698 0.251742 0.0828115
3529 2 8.71 23.5147 25.2994 0.17763 0.422548 -0.0590927 -0.677233
3530 2 0.27 13.4847 33.1594 0.17344 -1.12377 -0.989638 0.443626
3531 2 5.46 19.5247 36.0394 0.180688 0.237307 0.266776 0.0568949
3532 2 3.84 16.6147 25.9494 0.193773 -0.430975 -1.59746 0.0114871
3533 2 11.55 22.6347 29.0394 0.193319 -0.344379 -0.238348 -0.197768
3534 2 3 20.6147 27.0294 0.185159 0.135055 -0.0815709 -0.0868309
3535 2 9.53 22.4847 35.4494 0.183595 0.0382055 -1.11772 -0.571166
3536 2 11.18 17.2847 30.9394 0.169879 -0.438843 0.441049 -1.51322
3537 2 0.68 16.2047 37.3294 0.177371 -0.291542 -0.537391 -0.242298
3538 2 0.43 17.9547 29.7694 0.191063 -0.911682 -0.445064 0.172008
3539 2 9.51 21.9247 28.8294 0.198768 -0.777899 0.453491 0.709578
3540 2 9.08 18.3347 34.5694 0.183631 -0.87352 -0.131878 0.694453
3541 2 7.92 16.2747 25.6894 0.157297 -0.370777 1.9901 0.39
3542 2 4.23 15.6647 33.0994 0.191194 -1.42391 0.140277 -0.00568496
3543 2 5.27 18.3447 33.0794 0.18637 0.23111 -0.0760494 -0.406381
3544 2 4.44 23.3447 28.0294 0.186774 -0.369914 -0.593142 0.691883
3545 2 6.93 17.0047 29.7794 0.1968 0.140635 0.23838 0.137514
3546 2 11.88 14.0547 36.6394 0.177225 0.613574 1.15346 -0.980065
3547 2 6.79 20.9847 27.9794 0.175368 0.0995758 0.218341 0.44914
3548 2 5.62 17.4347 35.0194 0.221124 0.00680345 -0.644036 0.23631
3549 2 3.09 19.1047 31.8694 0.191091 1.4339 -0.115646 0.191252
3550 2 11.73 20.6647 31.7494 0.191114 -0.60041 -0.543251 -0.0195816
3551 2 8.4 15.8947 31.0694 0.180759 0.299544 0.121739 0.376315
3552 2 4.64 14.8147 37.0494 0.183435 0.773996 -0.148304 -0.517186
3553 2 0.74 24.1347 28.7494 0.193332 1.2446 0.486255 -0.165084
3554 2 1.1 17.7447 34.6094 0.198265 -0.394043 -0.607496 0.476826
3555 2 7.54 21.5547 25.7194 0.192117 -0.0556549 -0.517785 -0.239867
3556 2 11.36 18.6447 36.7894 0.192143 -0.194152 -0.0569342 0.0439434
3557 2 5.85 14.6547 32.4194 0.183621 0.497818 1.05771 0.321711
3558 2 8.81 14.4547 34.7794 0.182684 0.0118039 -0.0968997 -0.0594907
3559 2 2.17 14.8747 32.3494 0.202487 -1.14914 -0.170399 -0.334917
3560 2 10.1 14.9747 31.4394 0.181258 0.112985 -0.135615 -0.230565
3561 2 9.07 16.7347 35.7994 0.184908 -0.265508 -0.504535 0.000998142
3562 2 0.64 20.5747 26.3394 0.199679 0.509361 0.674756 -0.308527
3563 2 11.12 16.6447 33.0294 0.202259 -0.183432 0.403103 0.312239
3564 2 11.03 24.4747 25.4694 0.195342 0.754062 1.17489 0.046742
3565 2 6.83 14.2847 37.0794 0.187672 -0.296851 0.227235 0.205534
3566 2 9.13 22.8947 32.1394 0.185572 -0.160213 0.106226 -0.443097
3567 2 1.76 24.8847 31.6894 0.185591 -1.18374 1.35732 -0.0950314
3568 2 7.37 24.3247 29.9694 0.175798 0.63718 -0.474283 -0.169074
3569 2 5.59 20.7347 32.3294 0.218995 0.0580579 -0.600322 -0.182287
3570 2 8.14 24.5647 35.7494 0.195424 -0.210884 -1.20668 0.44547
3571 2 5.48 12.5047 31.2094 0.18894 0.122012 0.408555 -0.08423
3572 2 0.99 24.4347 25.2994 0.187845 0.420677 0.0199722 0.498787
3573 2 4.54 23.3947 30.6794 0.183359 -0.0166755 0.130507 0.932419
3574 2 10.94 18.7347 26.5394 0.201456 -0.0271594 0.593443 -0.475454
3575 2 2.52 22.9947 34.6494 0.218255 1.17313 -0.879268 -1.41997
3576 2 4.74 14.8547 27.3094 0.184875 0.756463 -0.550817 1.19336
3577 2 8.84 20.7147 36.4494 0.185769 0.648362 0.25355 -0.371432
3578 2 10.89 18.5047 34.4694 0.177024 -0.149969 -0.450755 -1.36989
3579 2 2.15 18.4347 36.0694 0.183133 0.198164 0.153305 -0.208429
3580 2 0.49 21.5047 34.0194 0.170818 -0.195458 -0.175679 0.133073
3581 2 8.69 24.7847 33.0394 0.197812 0.866191 0.118059 -0.768151
3582 2 1.76 13.8847 28.9594 0.192692 -0.221692 -1.01335 -0.531417
3583 2 10.05 16.8847 28.9894 0.192316 -0.125979 -0.745356 -0.0156513
3584 2 1.44 20.9347 32.2094 0.197897 -0.576743 0.967131 -0.266636
3585 2 12.25 15.7647 26.5694 0.205745 -0.637711 -0.790009 0.707792
3586 2 6.27 18.6647 26.4494 0.19505 -0.288682 -0.189982 -0.310421
3587 2 11.5 20.2947 28.0294 0.211303 -0.832439 0.597922 0.813031
3588 2 2.96 15.8847 29.4994 0.180348 -0.53315 -0.0678756 0.0315896
3589 2 5.04 23.6147 36.1894 0.203951 0.127407 -0.381069 -0.585079
3590 2 7.6 24.8347 27.9194 0.186688 0.821802 -0.728662 2.61792
3591 2 5.94 22.1247 34.2594 0.201527 -0.668951 -0.412464 0.824224
3592 2 4.93 23.9047 25.8494 0.192241 -0.183054 0.048434 -0.0612247
3593 2 8.92 24.1247 26.5794 0.18221 -0.842554 1.45774 1.60209
3594 2 12.07 13.8047 34.4294 0.171108 -0.388879 0.418075 1.32789
3595 2 4.17 19.7247 36.6894 0.187174 -1.2645 -0.132503 0.621875
3596 2 2.67 15.5347 25.9394 0.196792 0.335555 0.328199 0.0513122
3597 2 11.89 23.0347 30.4494 0.212694 0.132245 -0.756143 2.53351
3598 2 4.27 19.6747 27.0494 0.187744 0.0819584 0.0437282 -0.014548
3599 2 10.8 21.6647 35.0694 0.189919 -0.381736 -0.312457 0.000711734
3600 2 10.68 18.6447 30.3294 0.199547 0.402551 -0.469558 -0.0890399
3601 2 1.51 17.3447 25.4194 0.18783 -0.395816 -0.206722 0.454054
3602 2 1.94 17.8047 29.4994 0.202921 1.01914 -0.676954 -0.246073
3603 2 10.02 22.0847 27.3594 0.193894 -0.0946634 -0.934631 1.59326
3604 2 8.41 18.8747 35.9294 0.181308 0.148155 0.822047 0.803389
3605 2 8.58 16.7347 26.8994 0.171346 -0.324581 0.687869 0.564185
3606 2 3.12 16.7247 33.2994 0.186041 -0.39022 -0.00353663 0.188236
3607 2 5.12 17.9847 31.4894 0.200549 0.113948 0.0927141 0.568116
3608 2 3.97 22.0247 28.7794 0.200319 -0.122316 0.404547 -0.363303
3609 2 6.17 16.0747 28.7894 0.180499 0.0639782 0.428596 0.0335346
3610 2 11.4 15.3647 35.8794 0.186121 0.0360304 -0.322521 0.130693
3611 2 5.96 20.4647 29.1494 0.206263 1.14918 0.802719 -0.0191851
3612 2 6.81 18.3447 34.7194 0.201106 2.05205 -0.296834 0.216444
3613 2 1.83 19.0347 31.0494 0.187749 -0.77206 -0.352092 -1.05867
3614 2 10.19 20.8047 31.7694 0.185475 -0.393787 -0.00301775 -0.0332431
3615 2 8.74 17.1147 32.0094 0.196504 -0.744383 -0.329138 -0.441242
3616 2 4.84 13.5247 36.2694 0.193742 0.366905 -0.114311 0.0286737
3617 2 2.38 24.1547 28.5894 0.187953 -1.23536 0.0337461 0.0339414
3618 2 2.02 18.5447 33.8094 0.193418 0.561634 -0.413346 0.78988
3619 2 6.05 20.9247 25.4994 0.185433 1.45641 0.977446 0.978238
3620 2 12.12 19.4947 35.6994 0.183183 0.124941 0.27528 0.110928
3621 2 6.81 15.9047 32.1994 0.173814 -1.21254 -0.276885 1.47209
3622 2 7.52 14.4347 33.9894 0.171167 0.337103 -0.725409 0.21697
3623 2 1.25 14.7047 31.0694 0.198333 -0.100624 0.233891 -1.44321
3624 2 9.31 13.6347 31.2394 0.177466 0.392014 1.8779 -1.00921
3625 2 8.84 15.3447 36.5794 0.189554 0.0720236 0.182724 -0.115904
3626 2 1.39 21.8847 25.7394 0.203751 -0.146576 0.59705 0.00257634
3627 2 12.13 15.6647 32.3894 0.198004 2.70528 -1.03041 0.0528928
3628 2 11.38 13.3947 26.2294 0.189016 1.08991 -0.904653 -1.35612
3629 2 7.43 14.2647 26.1294 0.192864 0.551772 -0.285851 -1.97598
3630 2 9.15 21.8747 33.1694 0.178034 0.441238 -0.710188 2.23728
3631 2 2.97 24.1047 31.7694 0.189438 0.458816 -0.880809 0.139719
3632 2 7.5 22.8747 29.3594 0.181809 0.703659 1.2892 0.431932
3633 2 6.69 21.8447 32.3594 0.206108 2.27194 -0.0386644 -0.808168
3634 2 7.29 23.2147 35.8194 0.190335 -0.341809 -0.0505405 -0.227415
3635 2 5.45 13.5147 30.0094 0.197986 -0.0709411 0.236633 -0.237732
3636 2 1.92 24.0147 26.5094 0.180733 -0.408996 0.66742 -0.854417
3637 2 5.05 22.9947 32.1494 0.212011 -0.24814 -0.143977 -0.376963
3638 2 9.73 17.9647 25.9994 0.183029 -0.544856 -0.0114523 -0.514609
3639 2 1.73 24.2947 34.7094 0.204137 -0.0844958 -0.535799 0.289285
3640 2 6.02 14.0147 27.5594 0.172569 0.700397 -0.752366 -0.238808
3641 2 9.34 19.6447 25.0994 0.198756 -0.392309 0.548772 -0.176822
3642 2 10.71 19.0047 32.8594 0.182266 -0.323126 -1.06154 1.28721
3643 2 1.86 19.4747 37.2594 0.189127 0.480687 -0.368957 -0.146721
3644 2 1.08 21.6047 35.4794 0.184945 -2.28758 -0.741725 -1.18024
3645 2 10.19 24.8347 33.0394 0.190646 0.843632 0.202311 0.0268023
3646 2 0.92 15.0047 28.1694 0.175966 0.87842 -1.05619 2.45229
3647 2 9.34 15.4547 29.0594 0.202541 0.483856 0.409856 -0.157728
3648 2 1.11 22.5347 32.0994 0.213347 0.786961 0.737239 -0.312209
3649 1 24.2747 15.0047 27.0694 -0.418491 0.276299 0.657269 -0.200485
3650 1 17.8047 18.4447 26.6994 -0.356018 0.340909 0.424401 -0.894496
3651 1 24.6147 19.7847 27.5994 -0.375672 0.10863 -0.210973 -1.85834
3652 1 15.8247 16.7247 29.7294 -0.401225 0.921445 -0.302137 -0.574798
3653 1 16.9847 24.1747 36.7894 -0.352543 1.21088 0.71506 0.323246
3654 1 19.7847 12.6247 27.0694 -0.375671 -0.527888 1.20553 -1.95312
3655 1 18.1747 22.3447 35.1994 -0.425659 0.260775 0.0438408 0.365844
3656 1 17.7647 23.6347 26.7194 -0.352291 -0.145276 -0.360966 0.00939158
3657 1 21.8347 23.5847 25.9894 -0.384824 0.872364 -1.54216 -0.918642
3658 1 24.5047 13.0847 33.8094 -0.432941 1.38581 0.30866 -1.86882
3659 1 17.4547 20.1647 36.6294 -0.331212 1.05765 -0.0925055 -0.5785
3660 1 16.0847 15.6347 25.9694 -0.329397 0.449043 1.35174 0.0296344
3661 1 24.3247 23.3447 29.5894 -0.392605 0.205211 1.05597 -2.4539
3662 1 16.3247 20.4947 27.3994 -0.464722 -0.26886 0.355987 0.230431
3663 1 22.2647 21.6047 35.0694 -0.365582 0.339088 1.66956 0.487147
3664 1 23.4447 17.7547 30.0594 -0.319963 0.138437 0.056117 1.91456
3665 1 13.4147 16.5647 25.7294 -0.355457 0.745193 0.775312 -0.737707
3666 1 13.6847 18.4347 29.6494 -0.374759 -0.193319 0.928649 -0.354901
3667 1 22.5447 21.5347 28.2094 -0.354105 0.910882 0.645109 -2.49253
3668 1 20.8347 18.1647 35.2794 -0.373468 0.806808 -0.606212 -1.83733
3669 1 20.5047 17.1647 26.1894 -0.36779 0.704125 -2.90776 -0.607322
3670 1 15.6747 15.7847 33.1494 -0.401809 2.13811 -0.397561 -0.157464
3671 1 17.4647 18.6547 32.1794 -0.410387 -0.430403 0.366385 -0.264976
3672 1 16.3847 22.9947 28.8394 -0.402417 0.433442 0.317496 -0.0584441
3673 1 18.6947 17.0047 29.0994 -0.380616 -0.393397 -0.78499 -0.268426
3674 1 24.6247 14.7947 35.9994 -0.382165 -0.847422 -0.742853 1.12303
3675 1 19.2047 21.0147 28.9594 -0.403468 -1.14818 -0.76187 -0.553723
3676 1 18.3147 18.2847 34.6794 -0.349098 -2.3036 0.637171 -0.272957
3677 1 14.6247 19.3547 31.8794 -0.400384 -0.465996 0.744017 1.54717
3678 1 23.3347 20.1347 31.6694 -0.350546 0.885521 0.570846 0.0353116
3679 1 20.4747 16.7247 31.4594 -0.327248 0.482359 0.0230552 -0.0798877
3680 1 17.7347 14.3647 36.4494 -0.42046 -1.16668 0.352019 0.519708
3681 1 13.9747 24.6047 28.3394 -0.410573 0.41125 -0.955772 0.467826
3682 1 14.4847 17.9347 34.5994 -0.307416 -0.567494 1.07234 -2.10709
3683 1 19.1047 21.4947 26.0994 -0.337037 -1.61842 -1.07734 -0.670204
3684 1 24.1947 18.6247 35.8994 -0.375509 0.109186 0.0673197 -0.490524
3685 1 18.5547 15.5147 32.8494 -0.386894 0.529696 -0.930122 -1.62597
3686 1 20.6647 13.8247 34.3194 -0.395923 -0.580872 0.677685 -0.139491
3687 1 13.7547 14.4647 31.9794 -0.381656 1.03093 0.0207546 1.57357
3688 1 21.9247 14.5547 30.8094 -0.386544 -0.466579 -1.803 1.20747
3689 1 21.7747 15.7847 35.8594 -0.415654 0.367266 -0.157032 0.177816
3690 1 13.7547 20.9347 25.6994 -0.391659 -0.324857 -1.14426 0.312415
3691 1 23.6947 15.9247 32.3994 -0.362952 -2.5133 0.88359 -0.600304
3692 1 24.1447 12.7747 25.4894 -0.377211 -1.74595 -0.072101 1.00754
3693 1 20.0747 14.4847 25.1694 -0.388924 0.179885 0.446088 1.55241
3694 1 21.3047 21.9647 32.2894 -0.387579 -0.342433 0.412101 -1.61056
3695 1 14.4547 23.9847 31.7794 -0.409734 0.352689 -0.503178 0.166524
3696 1 20.4647 23.7147 29.5494 -0.386294 -1.67358 -0.912982 -0.155679
3697 1 18.2647 21.6247 32.5994 -0.322041 -1.62596 0.149791 0.939783
3698 1 20.5547 23.6347 36.1094 -0.344451 0.363563 1.24912 -0.544019
3699 1 18.3847 13.2847 30.7994 -0.430297 0.345363 0.0080501 0.132076
3700 1 14.3247 24.1047 25.5294 -0.447611 -0.0496764 -0.645403 0.598321
3701 1 17.1047 23.7247 31.6194 -0.350743 -0.301464 -0.466397 -1.15941
3702 1 22.7647 18.7047 25.7794 -0.326365 0.996679 -0.777099 1.09356
3703 1 14.4547 23.5147 35.2194 -0.382521 -0.874398 1.41949 0.876582
3704 1 17.8047 14.5047 28.0294 -0.366244 -1.58905 1.40304 -0.800865
3705 1 21.0047 20.0347 37.0594 -0.416319 -0.455253 -0.0906728 0.376233
3706 1 22.9547 18.2547 33.5494 -0.394248 0.641306 1.45687 0.242583
3707 1 14.8147 18.6747 36.9894 -0.416527 -0.176596 0.565328 1.08144
3708 1 12.7447 21.2147 34.9394 -0.378106 1.9013 0.678144 1.19048
3709 1 21.9147 24.5747 32.4594 -0.329557 -1.40431 0.150367 0.69802
3710 1 13.8547 14.7647 29.0594 -0.409848 -0.897516 2.03048 -1.61843
3711 1 22.1347 16.1347 28.4494 -0.385426 -0.312398 -0.0178097 0.00844916
3712 1 13.1947 21.6647 32.2794 -0.389397 -0.0507649 -1.95375 0.371096
3713 2 23.5347 15.3147 27.6294 0.191006 0.242629 0.249611 -0.242643
3714 2 17.9547 17.9547 27.4894 0.193884 0.17301 -0.778942 1.25697
3715 2 12.6847 19.2447 28.1794 0.202655 0.689767 -0.383475 1.08408
3716 2 16.7247 16.6347 29.3494 0.17904 -0.617848 0.498776 0.550852
3717 2 16.0747 24.0047 36.6494 0.196223 -1.9257 -0.27338 -0.129459
3718 2 18.9747 24.5147 26.8794 0.175621 -0.00358092 -0.0767602 0.0487012
3719 2 17.8147 21.5847 35.7394 0.192167 0.344527 0.250816 -0.896814
3720 2 18.1847 22.7547 26.5294 0.184005 0.0441675 0.251747 0.0828134
3721 2 21.1547 23.5147 25.2994 0.177629 0.422547 -0.0590905 -0.677231
3722 2 12.7147 13.4847 33.1594 0.17344 -1.12375 -0.989628 0.443613
3723 2 17.9047 19.5247 36.0394 0.180688 0.237321 0.266766 0.0568837
3724 2 16.2847 16.6147 25.9494 0.193774 -0.43098 -1.59746 0.0114872
3725 2 23.9947 22.6347 29.0394 0.193318 -0.344379 -0.238349 -0.197768
3726 2 15.4447 20.6147 27.0294 0.18516 0.135017 -0.0815678 -0.086848
3727 2 21.9747 22.4847 35.4494 0.183594 0.0381964 -1.11771 -0.571163
3728 2 23.6247 17.2847 30.9394 0.169879 -0.438842 0.44105 -1.51322
3729 2 13.1247 16.2047 37.3294 0.177371 -0.291541 -0.537389 -0.242299
3730 2 12.8747 17.9547 29.7694 0.191063 -0.911664 -0.445053 0.172006
3731 2 21.9547 21.9247 28.8294 0.198767 -0.7779 0.453492 0.709579
3732 2 21.5247 18.3347 34.5694 0.183631 -0.873539 -0.131885 0.694468
3733 2 20.3647 16.2747 25.6894 0.157297 -0.370781 1.9901 0.389999
3734 2 16.6747 15.6647 33.0994 0.191194 -1.42391 0.140274 -0.00568542
3735 2 17.7147 18.3447 33.0794 0.186371 0.231109 -0.0760516 -0.40638
3736 2 16.8847 23.3447 28.0294 0.186774 -0.369912 -0.593142 0.69188
3737 2 19.3747 17.0047 29.7794 0.1968 0.140624 0.23838 0.137503
3738 2 24.3247 14.0547 36.6394 0.177225 0.61358 1.15346 -0.98007
3739 2 19.2347 20.9847 27.9794 0.175367 0.0995804 0.218343 0.449136
3740 2 18.0647 17.4347 35.0194 0.221124 0.00680354 -0.644037 0.23631
3741 2 15.5347 19.1047 31.8694 0.191092 1.43385 -0.115633 0.191253
3742 2 24.1747 20.6647 31.7494 0.191113 -0.600432 -0.543267 -0.019584
3743 2 20.8447 15.8947 31.0694 0.180759 0.299553 0.121729 0.376313
3744 2 17.0847 14.8147 37.0494 0.183435 0.773988 -0.148303 -0.517181
3745 2 13.1847 24.1347 28.7494 0.193332 1.24461 0.486254 -0.165083
3746 2 13.5447 17.7447 34.6094 0.198265 -0.394013 -0.607491 0.476827
3747 2 19.9847 21.5547 25.7194 0.192116 -0.0556133 -0.517782 -0.239885
3748 2 23.8047 18.6447 36.7894 0.192143 -0.19416 -0.0569358 0.0439561
3749 2 18.2947 14.6547 32.4194 0.183621 0.497817 1.05771 0.321711
3750 2 21.2547 14.4547 34.7794 0.182684 0.011807 -0.096903 -0.0594897
3751 2 14.6147 14.8747 32.3494 0.202487 -1.14915 -0.170402 -0.334918
3752 2 22.5447 14.9747 31.4394 0.181258 0.112984 -0.135617 -0.230565
3753 2 21.5147 16.7347 35.7994 0.184907 -0.265509 -0.504536 0.000998873
3754 2 13.0847 20.5747 26.3394 0.199679 0.509363 0.674757 -0.308528
3755 2 23.5647 16.6447 33.0294 0.202259 -0.183426 0.403099 0.312236
3756 2 23.4747 24.4747 25.4694 0.195342 0.754029 1.17486 0.0467423
3757 2 19.2747 14.2847 37.0794 0.187672 -0.296876 0.227228 0.205524
3758 2 21.5747 22.8947 32.1394 0.185571 -0.160205 0.106242 -0.443097
3759 2 14.2047 24.8847 31.6894 0.185591 -1.18374 1.35732 -0.0950316
3760 2 19.8147 24.3247 29.9694 0.175797 0.637197 -0.474297 -0.169083
3761 2 18.0347 20.7347 32.3294 0.218995 0.0580558 -0.600328 -0.182289
3762 2 20.5847 24.5647 35.7494 0.195424 -0.210873 -1.20668 0.44547
3763 2 17.9247 12.5047 31.2094 0.188941 0.122024 0.408565 -0.0842324
3764 2 13.4347 24.4347 25.2994 0.187845 0.420688 0.0199681 0.49879
3765 2 16.9847 23.3947 30.6794 0.183359 -0.0166709 0.130507 0.932422
3766 2 23.3847 18.7347 26.5394 0.201455 -0.0271767 0.593442 -0.475471
3767 2 14.9647 22.9947 34.6494 0.218255 1.17314 -0.879283 -1.41999
3768 2 17.1847 14.8547 27.3094 0.184875 0.756473 -0.550823 1.19337
3769 2 21.2847 20.7147 36.4494 0.185769 0.648354 0.25354 -0.371424
3770 2 23.3347 18.5047 34.4694 0.177024 -0.149962 -0.450752 -1.36988
3771 2 14.5947 18.4347 36.0694 0.183133 0.198165 0.153305 -0.208427
3772 2 12.9347 21.5047 34.0194 0.170818 -0.195456 -0.175678 0.133072
3773 2 21.1347 24.7847 33.0394 0.197812 0.866142 0.118071 -0.768117
3774 2 14.2047 13.8847 28.9594 0.192691 -0.221695 -1.01334 -0.531417
3775 2 22.4947 16.8847 28.9894 0.192316 -0.125967 -0.745338 -0.0156402
3776 2 13.8847 20.9347 32.2094 0.197896 -0.576732 0.967123 -0.266638
3777 2 24.6947 15.7647 26.5694 0.205745 -0.637711 -0.790009 0.707791
3778 2 18.7147 18.6647 26.4494 0.19505 -0.288682 -0.189984 -0.310418
3779 2 23.9447 20.2947 28.0294 0.211303 -0.83244 0.597922 0.813032
3780 2 15.4047 15.8847 29.4994 0.180348 -0.533149 -0.0678751 0.0315898
3781 2 17.4847 23.6147 36.1894 0.203951 0.127407 -0.381069 -0.585079
3782 2 20.0447 24.8347 27.9194 0.186687 0.821799 -0.728661 2.61791
3783 2 18.3847 22.1247 34.2594 0.201527 -0.668955 -0.412463 0.824232
3784 2 17.3747 23.9047 25.8494 0.192241 -0.183062 0.0484375 -0.0612345
3785 2 21.3647 24.1247 26.5794 0.182209 -0.842566 1.45775 1.60211
3786 2 24.5147 13.8047 34.4294 0.171108 -0.388881 0.418075 1.32789
3787 2 16.6147 19.7247 36.6894 0.187175 -1.2645 -0.132501 0.621879
3788 2 15.1147 15.5347 25.9394 0.196793 0.335525 0.328198 0.0513115
3789 2 24.3347 23.0347 30.4494 0.212694 0.132244 -0.756143 2.53351
3790 2 16.7147 19.6747 27.0494 0.187745 0.0819473 0.0437482 -0.0145399
3791 2 23.2447 21.6647 35.0694 0.189919 -0.381692 -0.312458 0.000709176
3792 2 23.1247 18.6447 30.3294 0.199547 0.402551 -0.469559 -0.0890406
3793 2 13.9547 17.3447 25.4194 0.18783 -0.395827 -0.206735 0.454057
3794 2 14.3847 17.8047 29.4994 0.202921 1.01915 -0.676959 -0.246074
3795 2 22.4647 22.0847 27.3594 0.193894 -0.0946639 -0.934632 1.59326
3796 2 20.8547 18.8747 35.9294 0.181307 0.148153 0.822046 0.803391
3797 2 21.0247 16.7347 26.8994 0.171346 -0.324595 0.68788 0.564168
3798 2 15.5647 16.7247 33.2994 0.18604 -0.390223 -0.00353218 0.188237
3799 2 17.5647 17.9847 31.4894 0.200549 0.113951 0.0927076 0.568111
3800 2 16.4147 22.0247 28.7794 0.200319 -0.122313 0.404545 -0.363305
3801 2 18.6147 16.0747 28.7894 0.180499 0.0639784 0.428595 0.033534
3802 2 23.8447 15.3647 35.8794 0.186121 0.0360303 -0.322519 0.13069
3803 2 18.4047 20.4647 29.1494 0.206262 1.14921 0.802735 -0.0191884
3804 2 19.2547 18.3447 34.7194 0.201106 2.05203 -0.296836 0.216444
3805 2 14.2747 19.0347 31.0494 0.187749 -0.772064 -0.352094 -1.05867
3806 2 22.6347 20.8047 31.7694 0.185475 -0.393834 -0.0029786 -0.0332382
3807 2 21.1847 17.1147 32.0094 0.196505 -0.744362 -0.329131 -0.441229
3808 2 17.2847 13.5247 36.2694 0.193743 0.366891 -0.114328 0.0286712
3809 2 14.8247 24.1547 28.5894 0.187953 -1.23537 0.033749 0.0339395
3810 2 14.4647 18.5447 33.8094 0.193418 0.561637 -0.413345 0.789879
3811 2 18.4947 20.9247 25.4994 0.185433 1.45643 0.977456 0.978247
3812 2 24.5647 19.4947 35.6994 0.183183 0.124952 0.2753 0.11092
3813 2 19.2547 15.9047 32.1994 0.173814 -1.21253 -0.276882 1.47208
3814 2 19.9647 14.4347 33.9894 0.171167 0.337069 -0.725387 0.216954
3815 2 13.6947 14.7047 31.0694 0.198333 -0.100624 0.233892 -1.44321
3816 2 21.7547 13.6347 31.2394 0.177466 0.392018 1.8779 -1.00921
3817 2 21.2847 15.3447 36.5794 0.189554 0.0720231 0.182724 -0.115905
3818 2 13.8347 21.8847 25.7394 0.203751 -0.146576 0.59705 0.00257592
3819 2 24.5747 15.6647 32.3894 0.198004 2.70534 -1.03042 0.0528954
3820 2 23.8247 13.3947 26.2294 0.189016 1.08991 -0.904654 -1.35612
3821 2 19.8747 14.2647 26.1294 0.192864 0.551762 -0.285855 -1.97597
3822 2 21.5947 21.8747 33.1694 0.178035 0.441242 -0.710186 2.23729
3823 2 15.4147 24.1047 31.7694 0.189438 0.458859 -0.880805 0.139719
3824 2 19.9447 22.8747 29.3594 0.181808 0.703659 1.2892 0.431931
3825 2 19.1347 21.8447 32.3594 0.206107 2.27189 -0.0386762 -0.808154
3826 2 19.7347 23.2147 35.8194 0.190335 -0.341745 -0.0505158 -0.227391
3827 2 17.8947 13.5147 30.0094 0.197986 -0.0709194 0.236628 -0.237705
3828 2 14.3647 24.0147 26.5094 0.180733 -0.408996 0.66742 -0.854417
3829 2 17.4947 22.9947 32.1494 0.212012 -0.24813 -0.143989 -0.376955
3830 2 22.1747 17.9647 25.9994 0.183029 -0.544853 -0.0114512 -0.514607
3831 2 14.1747 24.2947 34.7094 0.204137 -0.0844918 -0.535808 0.28929
3832 2 18.4647 14.0147 27.5594 0.172569 0.700397 -0.752367 -0.238809
3833 2 21.7847 19.6447 25.0994 0.198757 -0.392331 0.548777 -0.17683
3834 2 23.1547 19.0047 32.8594 0.182267 -0.323121 -1.06154 1.28721
3835 2 14.3047 19.4747 37.2594 0.189126 0.480691 -0.368962 -0.146721
3836 2 13.5247 21.6047 35.4794 0.184945 -2.28758 -0.741723 -1.18023
3837 2 22.6347 24.8347 33.0394 0.190646 0.84358 0.202293 0.0267586
3838 2 13.3647 15.0047 28.1694 0.175967 0.87842 -1.05619 2.45229
3839 2 21.7847 15.4547 29.0594 0.202541 0.483863 0.409866 -0.157737
3840 2 13.5547 22.5347 32.0994 0.213347 0.786964 0.73724 -0.31221
3841 1 11.83 27.4494 27.0694 -0.418491 0.27631 0.657264 -0.200492
3842 1 5.36 30.8894 26.6994 -0.356019 0.340915 0.424392 -0.894493
3843 1 12.17 32.2294 27.5994 -0.375672 0.108667 -0.211001 -1.85836
3844 1 3.38 29.1694 29.7294 -0.401225 0.921444 -0.3021 -0.574781
3845 1 4.54 36.6194 36.7894 -0.352543 1.21093 0.715033 0.323221
3846 1 7.34 25.0694 27.0694 -0.375672 -0.527904 1.20551 -1.9531
3847 1 5.73 34.7894 35.1994 -0.425659 0.260792 0.0439099 0.365842
3848 1 5.32 36.0794 26.7194 -0.352291 -0.145347 -0.360833 0.00938418
3849 1 9.39 36.0294 25.9894 -0.384823 0.872351 -1.54214 -0.918629
3850 1 12.06 25.5294 33.8094 -0.432942 1.38579 0.308613 -1.86883
3851 1 5.01 32.6094 36.6294 -0.331211 1.0576 -0.0926091 -0.578533
3852 1 3.64 28.0794 25.9694 -0.329396 0.449013 1.35178 0.0296319
3853 1 11.88 35.7894 29.5894 -0.392605 0.205214 1.05599 -2.45395
3854 1 3.88 32.9394 27.3994 -0.464721 -0.268907 0.356006 0.23042
3855 1 9.82 34.0494 35.0694 -0.365582 0.339117 1.66963 0.48717
3856 1 11 30.1994 30.0594 -0.319963 0.138436 0.0561117 1.91456
3857 1 0.97 29.0094 25.7294 -0.355457 0.745183 0.775299 -0.737702
3858 1 1.24 30.8794 29.6494 -0.374759 -0.193242 0.928605 -0.354914
3859 1 10.1 33.9794 28.2094 -0.354105 0.91088 0.645109 -2.49253
3860 1 8.39 30.6094 35.2794 -0.373468 0.806789 -0.606215 -1.83731
3861 1 8.06 29.6094 26.1894 -0.36779 0.704108 -2.90775 -0.607342
3862 1 3.23 28.2294 33.1494 -0.401809 2.13812 -0.39765 -0.157478
3863 1 5.02 31.0994 32.1794 -0.410388 -0.430398 0.366374 -0.264981
3864 1 3.94 35.4394 28.8394 -0.402417 0.433444 0.317388 -0.0584426
3865 1 6.25 29.4494 29.0994 -0.380616 -0.393407 -0.784991 -0.268438
3866 1 12.18 27.2394 35.9994 -0.382164 -0.847401 -0.742899 1.12305
3867 1 6.76 33.4594 28.9594 -0.403468 -1.14814 -0.761846 -0.553723
3868 1 5.87 30.7294 34.6794 -0.349097 -2.30362 0.637171 -0.272955
3869 1 2.18 31.7994 31.8794 -0.400384 -0.466051 0.744034 1.54717
3870 1 10.89 32.5794 31.6694 -0.350545 0.885472 0.57097 0.0353274
3871 1 8.03 29.1694 31.4594 -0.327248 0.4824 0.0230997 -0.0798483
3872 1 5.29 26.8094 36.4494 -0.420459 -1.16669 0.351996 0.519702
3873 1 1.53 37.0494 28.3394 -0.410573 0.411222 -0.955797 0.467835
3874 1 2.04 30.3794 34.5994 -0.307416 -0.567462 1.07235 -2.10709
3875 1 6.66 33.9394 26.0994 -0.337037 -1.61835 -1.07733 -0.670215
3876 1 11.75 31.0694 35.8994 -0.375509 0.109189 0.0673366 -0.49052
3877 1 6.11 27.9594 32.8494 -0.386894 0.529694 -0.930154 -1.62598
3878 1 8.22 26.2694 34.3194 -0.395924 -0.580905 0.677744 -0.139505
3879 1 1.31 26.9094 31.9794 -0.381656 1.03092 0.0207428 1.57358
3880 1 9.48 26.9994 30.8094 -0.386543 -0.466571 -1.803 1.20747
3881 1 9.33 28.2294 35.8594 -0.415654 0.367266 -0.157032 0.177813
3882 1 1.31 33.3794 25.6994 -0.391658 -0.324831 -1.14422 0.312391
3883 1 11.25 28.3694 32.3994 -0.362951 -2.51323 0.883567 -0.600306
3884 1 11.7 25.2194 25.4894 -0.377211 -1.74597 -0.0721262 1.00753
3885 1 7.63 26.9294 25.1694 -0.388923 0.179861 0.446086 1.5524
3886 1 8.86 34.4094 32.2894 -0.387579 -0.342394 0.412192 -1.61057
3887 1 2.01 36.4294 31.7794 -0.409736 0.352785 -0.503384 0.166545
3888 1 8.02 36.1594 29.5494 -0.386295 -1.67358 -0.912964 -0.155672
3889 1 5.82 34.0694 32.5994 -0.32204 -1.626 0.149843 0.939825
3890 1 8.11 36.0794 36.1094 -0.34445 0.363674 1.24924 -0.544006
3891 1 5.94 25.7294 30.7994 -0.430297 0.345398 0.00806042 0.132097
3892 1 1.88 36.5494 25.5294 -0.447611 -0.0496371 -0.645419 0.59833
3893 1 4.66 36.1694 31.6194 -0.350744 -0.301479 -0.466331 -1.15938
3894 1 10.32 31.1494 25.7794 -0.326365 0.996669 -0.777101 1.09354
3895 1 2.01 35.9594 35.2194 -0.382522 -0.874357 1.41941 0.876599
3896 1 5.36 26.9494 28.0294 -0.366244 -1.58904 1.40304 -0.800857
3897 1 8.56 32.4794 37.0594 -0.416319 -0.455302 -0.090661 0.376216
3898 1 10.51 30.6994 33.5494 -0.394248 0.641317 1.45687 0.242589
3899 1 2.37 31.1194 36.9894 -0.416527 -0.176556 0.565268 1.08142
3900 1 0.3 33.6594 34.9394 -0.378106 1.90131 0.678157 1.19045
3901 1 9.47 37.0194 32.4594 -0.329557 -1.40443 0.15033 0.697982
3902 1 1.41 27.2094 29.0594 -0.409847 -0.897503 2.03044 -1.61843
3903 1 9.69 28.5794 28.4494 -0.385426 -0.312355 -0.0177361 0.00842493
3904 1 0.75 34.1094 32.2794 -0.389396 -0.0507336 -1.95391 0.371106
3905 2 11.09 27.7594 27.6294 0.191007 0.242619 0.249616 -0.242637
3906 2 5.51 30.3994 27.4894 0.193884 0.173006 -0.77894 1.25697
3907 2 0.24 31.6894 28.1794 0.202655 0.689769 -0.383477 1.08408
3908 2 4.28 29.0794 29.3494 0.179041 -0.61783 0.498776 0.550844
3909 2 3.63 36.4494 36.6494 0.196223 -1.92572 -0.273384 -0.129464
3910 2 6.53 36.9594 26.8794 0.175621 -0.00359388 -0.076778 0.0487025
3911 2 5.37 34.0294 35.7394 0.192167 0.344503 0.250766 -0.896791
3912 2 5.74 35.1994 26.5294 0.184006 0.0442125 0.251634 0.0827893
3913 2 8.71 35.9594 25.2994 0.17763 0.422546 -0.059094 -0.677231
3914 2 0.27 25.9294 33.1594 0.173441 -1.12376 -0.989627 0.443622
3915 2 5.46 31.9694 36.0394 0.180688 0.237295 0.266816 0.0569209
3916 2 3.84 29.0594 25.9494 0.193773 -0.430978 -1.59749 0.0114878
3917 2 11.55 35.0794 29.0394 0.193319 -0.344379 -0.23835 -0.197761
3918 2 3 33.0594 27.0294 0.185159 0.135046 -0.0815632 -0.0868303
3919 2 9.53 34.9294 35.4494 0.183594 0.0382112 -1.11778 -0.571186
3920 2 11.18 29.7294 30.9394 0.169879 -0.438843 0.44105 -1.51322
3921 2 0.68 28.6494 37.3294 0.177372 -0.291542 -0.537391 -0.242298
3922 2 0.43 30.3994 29.7694 0.191063 -0.911686 -0.445061 0.172009
3923 2 9.51 34.3694 28.8294 0.198767 -0.7779 0.453493 0.709578
3924 2 9.08 30.7794 34.5694 0.183631 -0.87352 -0.131879 0.694453
3925 2 7.92 28.7194 25.6894 0.157297 -0.370777 1.9901 0.390001
3926 2 4.23 28.1094 33.0994 0.191194 -1.42391 0.140276 -0.00568521
3927 2 5.27 30.7894 33.0794 0.186371 0.231109 -0.076049 -0.406381
3928 2 4.44 35.7894 28.0294 0.186774 -0.369906 -0.593126 0.69187
3929 2 6.93 29.4494 29.7794 0.1968 0.140636 0.23838 0.137515
3930 2 11.88 26.4994 36.6394 0.177225 0.613582 1.15349 -0.980084
3931 2 6.79 33.4294 27.9794 0.175367 0.099571 0.218335 0.449136
3932 2 5.62 29.8794 35.0194 0.221124 0.00680332 -0.644037 0.23631
3933 2 3.09 31.5494 31.8694 0.191091 1.4339 -0.115646 0.191253
3934 2 11.73 33.1094 31.7494 0.191113 -0.600459 -0.543302 -0.0195874
3935 2 8.4 28.3394 31.0694 0.180758 0.299558 0.121714 0.376306
3936 2 4.64 27.2594 37.0494 0.183435 0.773987 -0.148292 -0.517175
3937 2 0.74 36.5794 28.7494 0.193332 1.24462 0.486273 -0.165095
3938 2 1.1 30.1894 34.6094 0.198265 -0.394042 -0.607496 0.476827
3939 2 7.54 33.9994 25.7194 0.192116 -0.055658 -0.517785 -0.239866
3940 2 11.36 31.0894 36.7894 0.192143 -0.194153 -0.056934 0.0439459
3941 2 5.85 27.0994 32.4194 0.183621 0.497824 1.05774 0.321724
3942 2 8.81 26.8994 34.7794 0.182684 0.0117921 -0.0969187 -0.0594996
3943 2 2.17 27.3194 32.3494 0.202487 -1.14914 -0.170397 -0.334916
3944 2 10.1 27.4194 31.4394 0.181258 0.112983 -0.135615 -0.230566
3945 2 9.07 29.1794 35.7994 0.184908 -0.265508 -0.504538 0.000999111
3946 2 0.64 33.0194 26.3394 0.199679 0.50933 0.674721 -0.3085
3947 2 11.12 29.0894 33.0294 0.202259 -0.183432 0.403104 0.312239
3948 2 11.03 36.9194 25.4694 0.195342 0.754094 1.17494 0.0467479
3949 2 6.83 26.7294 37.0794 0.187672 -0.296856 0.227232 0.205532
3950 2 9.13 35.3394 32.1394 0.185571 -0.160232 0.106154 -0.443082
3951 2 1.76 37.3294 31.6894 0.185592 -1.18379 1.35752 -0.0950525
3952 2 7.37 36.7694 29.9694 0.175797 0.637206 -0.47432 -0.169093
3953 2 5.59 33.1794 32.3294 0.218995 0.0580296 -0.600407 -0.18231
3954 2 8.14 37.0094 35.7494 0.195423 -0.210882 -1.20674 0.445493
3955 2 5.48 24.9494 31.2094 0.18894 0.122011 0.408553 -0.084229
3956 2 0.99 36.8794 25.2994 0.187845 0.420652 0.0199857 0.498779
3957 2 4.54 35.8394 30.6794 0.183359 -0.0166751 0.130474 0.93239
3958 2 10.94 31.1794 26.5394 0.201456 -0.0271578 0.593443 -0.475454
3959 2 2.52 35.4394 34.6494 0.218254 1.17313 -0.879271 -1.41997
3960 2 4.74 27.2994 27.3094 0.184875 0.756462 -0.550817 1.19336
3961 2 8.84 33.1594 36.4494 0.185769 0.648359 0.253552 -0.371433
3962 2 10.89 30.9494 34.4694 0.177024 -0.149969 -0.450755 -1.36989
3963 2 2.15 30.8794 36.0694 0.183133 0.198164 0.153304 -0.208429
3964 2 0.49 33.9494 34.0194 0.170818 -0.195463 -0.175688 0.133092
3965 2 8.69 37.2294 33.0394 0.197812 0.866183 0.118068 -0.768142
3966 2 1.76 26.3294 28.9594 0.192692 -0.22171 -1.01331 -0.531413
3967 2 10.05 29.3294 28.9894 0.192315 -0.125979 -0.745352 -0.0156553
3968 2 1.44 33.3794 32.2094 0.197897 -0.576798 0.967203 -0.266631
3969 2 12.25 28.2094 26.5694 0.205745 -0.637713 -0.790008 0.707792
3970 2 6.27 31.1094 26.4494 0.19505 -0.288682 -0.189981 -0.31042
3971 2 11.5 32.7394 28.0294 0.211302 -0.832479 0.597952 0.813056
3972 2 2.96 28.3294 29.4994 0.180348 -0.533168 -0.0679111 0.0315804
3973 2 5.04 36.0594 36.1894 0.203951 0.127375 -0.381038 -0.585047
3974 2 7.6 37.2794 27.9194 0.186688 0.821806 -0.72867 2.61794
3975 2 5.94 34.5694 34.2594 0.201526 -0.668951 -0.412477 0.824212
3976 2 4.93 36.3494 25.8494 0.192241 -0.183048 0.0484231 -0.061211
3977 2 8.92 36.5694 26.5794 0.18221 -0.842554 1.45774 1.60209
3978 2 12.07 26.2494 34.4294 0.171108 -0.388877 0.418107 1.32791
3979 2 4.17 32.1694 36.6894 0.187174 -1.26442 -0.132454 0.621877
3980 2 2.67 27.9794 25.9394 0.196792 0.335552 0.328195 0.0513125
3981 2 11.89 35.4794 30.4494 0.212695 0.132243 -0.756158 2.53355
3982 2 4.27 32.1194 27.0494 0.187745 0.0819645 0.0437294 -0.014544
3983 2 10.8 34.1094 35.0694 0.18992 -0.381738 -0.312467 0.000708911
3984 2 10.68 31.0894 30.3294 0.199548 0.402551 -0.469558 -0.0890409
3985 2 1.51 29.7894 25.4194 0.18783 -0.395816 -0.206723 0.454055
3986 2 1.94 30.2494 29.4994 0.202921 1.0191 -0.676907 -0.246061
3987 2 10.02 34.5294 27.3594 0.193894 -0.0946635 -0.934631 1.59326
3988 2 8.41 31.3194 35.9294 0.181308 0.148156 0.822046 0.80339
3989 2 8.58 29.1794 26.8994 0.171346 -0.324582 0.687868 0.564185
3990 2 3.12 29.1694 33.2994 0.18604 -0.390231 -0.00344311 0.18825
3991 2 5.12 30.4294 31.4894 0.200548 0.113948 0.0927148 0.568117
3992 2 3.97 34.4694 28.7794 0.200318 -0.122321 0.404636 -0.363294
3993 2 6.17 28.5194 28.7894 0.1805 0.0639785 0.428597 0.0335348
3994 2 11.4 27.8094 35.8794 0.186121 0.0360056 -0.322505 0.130691
3995 2 5.96 32.9094 29.1494 0.206263 1.14918 0.802718 -0.0191904
3996 2 6.81 30.7894 34.7194 0.201106 2.05205 -0.296834 0.216444
3997 2 1.83 31.4794 31.0494 0.187749 -0.772061 -0.352093 -1.05867
3998 2 10.19 33.2494 31.7694 0.185474 -0.39376 -0.00306219 -0.0332494
3999 2 8.74 29.5594 32.0094 0.196504 -0.744406 -0.329158 -0.441263
4000 2 4.84 25.9694 36.2694 0.193742 0.366906 -0.114314 0.0286714
4001 2 2.38 36.5994 28.5894 0.187953 -1.23536 0.0337496 0.0339387
4002 2 2.02 30.9894 33.8094 0.193418 0.561635 -0.413347 0.789881
4003 2 6.05 33.3694 25.4994 0.185432 1.45641 0.977448 0.978238
4004 2 12.12 31.9394 35.6994 0.183183 0.124942 0.275282 0.110928
4005 2 6.81 28.3494 32.1994 0.173814 -1.21254 -0.27688 1.47208
4006 2 7.52 26.8794 33.9894 0.171167 0.337116 -0.725428 0.216976
4007 2 1.25 27.1494 31.0694 0.198333 -0.100623 0.233895 -1.44322
4008 2 9.31 26.0794 31.2394 0.177467 0.392013 1.8779 -1.00921
4009 2 8.84 27.7894 36.5794 0.189554 0.0720224 0.182723 -0.115903
4010 2 1.39 34.3294 25.7394 0.203751 -0.146567 0.597052 0.00256931
4011 2 12.13 28.1094 32.3894 0.198004 2.70528 -1.03041 0.0528936
4012 2 11.38 25.8394 26.2294 0.189016 1.08991 -0.904636 -1.3561
4013 2 7.43 26.7094 26.1294 0.192864 0.551769 -0.285854 -1.97597
4014 2 9.15 34.3194 33.1694 0.178035 0.441238 -0.710186 2.23727
4015 2 2.97 36.5494 31.7694 0.189438 0.458819 -0.880801 0.139719
4016 2 7.5 35.3194 29.3594 0.181809 0.703653 1.28921 0.431935
4017 2 6.69 34.2894 32.3594 0.206108 2.27196 -0.0386534 -0.808173
4018 2 7.29 35.6594 35.8194 0.190335 -0.341841 -0.050562 -0.227425
4019 2 5.45 25.9594 30.0094 0.197987 -0.070941 0.236634 -0.237732
4020 2 1.92 36.4594 26.5094 0.180733 -0.408996 0.66742 -0.854415
4021 2 5.05 35.4394 32.1494 0.212011 -0.248121 -0.144022 -0.376947
4022 2 9.73 30.4094 25.9994 0.183029 -0.544857 -0.0114509 -0.514609
4023 2 1.73 36.7394 34.7094 0.204137 -0.084519 -0.535739 0.289252
4024 2 6.02 26.4594 27.5594 0.172569 0.700398 -0.752366 -0.238807
4025 2 9.34 32.0894 25.0994 0.198757 -0.392293 0.548754 -0.176808
4026 2 10.71 31.4494 32.8594 0.182266 -0.323124 -1.06154 1.28721
4027 2 1.86 31.9194 37.2594 0.189127 0.480655 -0.368904 -0.146703
4028 2 1.08 34.0494 35.4794 0.184944 -2.28758 -0.741726 -1.18023
4029 2 10.19 37.2794 33.0394 0.190646 0.843653 0.202321 0.0268203
4030 2 0.92 27.4494 28.1694 0.175967 0.878421 -1.05619 2.45229
4031 2 9.34 27.8994 29.0594 0.20254 0.483834 0.409812 -0.157696
4032 2 1.11 34.9794 32.0994 0.213347 0.786995 0.73731 -0.312226
4033 1 24.2747 27.4494 27.0694 -0.418491 0.27631 0.657261 -0.200493
4034 1 17.8047 30.8894 26.6994 -0.356018 0.34091 0.424397 -0.894497
4035 1 24.6147 32.2294 27.5994 -0.375673 0.108666 -0.211001 -1.85837
4036 1 15.8247 29.1694 29.7294 -0.401225 0.921462 -0.302102 -0.574788
4037 1 16.9847 36.6194 36.7894 -0.352543 1.21093 0.71503 0.323219
4038 1 19.7847 25.0694 27.0694 -0.375672 -0.527896 1.20551 -1.95309
4039 1 18.1747 34.7894 35.1994 -0.425659 0.260792 0.0439064 0.36584
4040 1 17.7647 36.0794 26.7194 -0.352291 -0.145334 -0.360845 0.00939279
4041 1 21.8347 36.0294 25.9894 -0.384824 0.872365 -1.54216 -0.918646
4042 1 24.5047 25.5294 33.8094 -0.432941 1.3858 0.308618 -1.86884
4043 1 17.4547 32.6094 36.6294 -0.331211 1.05758 -0.0926001 -0.578524
4044 1 16.0847 28.0794 25.9694 -0.329396 0.44905 1.35178 0.029634
4045 1 24.3247 35.7894 29.5894 -0.392605 0.205215 1.05599 -2.45395
4046 1 16.3247 32.9394 27.3994 -0.464721 -0.268852 0.355978 0.23043
4047 1 22.2647 34.0494 35.0694 -0.365583 0.339084 1.66963 0.487171
4048 1 23.4447 30.1994 30.0594 -0.319963 0.138434 0.0561116 1.91456
4049 1 13.4147 29.0094 25.7294 -0.355457 0.745194 0.775312 -0.737706
4050 1 13.6847 30.8794 29.6494 -0.374759 -0.19327 0.928602 -0.35491
4051 1 22.5447 33.9794 28.2094 -0.354105 0.910878 0.645111 -2.49253
4052 1 20.8347 30.6094 35.2794 -0.373468 0.806807 -0.606212 -1.83733
4053 1 20.5047 29.6094 26.1894 -0.36779 0.704124 -2.90776 -0.607322
4054 1 15.6747 28.2294 33.1494 -0.401809 2.13812 -0.397653 -0.15748
4055 1 17.4647 31.0994 32.1794 -0.410388 -0.430404 0.366381 -0.264979
4056 1 16.3847 35.4394 28.8394 -0.402417 0.433437 0.31739 -0.0584374
4057 1 18.6947 29.4494 29.0994 -0.380616 -0.393398 -0.784992 -0.268427
4058 1 24.6247 27.2394 35.9994 -0.382165 -0.847409 -0.742904 1.12306
4059 1 19.2047 33.4594 28.9594 -0.403468 -1.14817 -0.761867 -0.553718
4060 1 18.3147 30.7294 34.6794 -0.349098 -2.3036 0.637171 -0.272957
4061 1 14.6247 31.7994 31.8794 -0.400385 -0.466001 0.74402 1.54717
4062 1 23.3347 32.5794 31.6694 -0.350545 0.885544 0.570949 0.0353248
4063 1 20.4747 29.1694 31.4594 -0.327248 0.482364 0.0231012 -0.079861
4064 1 17.7347 26.8094 36.4494 -0.42046 -1.16667 0.352009 0.519697
4065 1 13.9747 37.0494 28.3394 -0.410573 0.411226 -0.955802 0.467837
4066 1 14.4847 30.3794 34.5994 -0.307416 -0.567494 1.07234 -2.10709
4067 1 19.1047 33.9394 26.0994 -0.337037 -1.6184 -1.07734 -0.670207
4068 1 24.1947 31.0694 35.8994 -0.375509 0.109186 0.0673199 -0.490526
4069 1 18.5547 27.9594 32.8494 -0.386894 0.529679 -0.930158 -1.62598
4070 1 20.6647 26.2694 34.3194 -0.395923 -0.580874 0.677723 -0.139489
4071 1 13.7547 26.9094 31.9794 -0.381656 1.03093 0.0207485 1.57358
4072 1 21.9247 26.9994 30.8094 -0.386543 -0.466578 -1.803 1.20747
4073 1 21.7747 28.2294 35.8594 -0.415653 0.367263 -0.157034 0.177814
4074 1 13.7547 33.3794 25.6994 -0.391658 -0.324833 -1.14423 0.312392
4075 1 23.6947 28.3694 32.3994 -0.362952 -2.5133 0.883589 -0.600305
4076 1 24.1447 25.2194 25.4894 -0.37721 -1.74594 -0.0720918 1.00753
4077 1 20.0747 26.9294 25.1694 -0.388923 0.179893 0.446097 1.55241
4078 1 21.3047 34.4094 32.2894 -0.387579 -0.342412 0.412171 -1.61057
4079 1 14.4547 36.4294 31.7794 -0.409735 0.352741 -0.503389 0.166544
4080 1 20.4647 36.1594 29.5494 -0.386295 -1.6736 -0.91295 -0.155661
4081 1 18.2647 34.0694 32.5994 -0.32204 -1.62595 0.149856 0.939811
4082 1 20.5547 36.0794 36.1094 -0.34445 0.363594 1.24921 -0.544036
4083 1 18.3847 25.7294 30.7994 -0.430297 0.345364 0.0080552 0.132075
4084 1 14.3247 36.5494 25.5294 -0.447611 -0.0496537 -0.645415 0.598326
4085 1 17.1047 36.1694 31.6194 -0.350743 -0.301489 -0.466319 -1.15939
4086 1 22.7647 31.1494 25.7794 -0.326365 0.996679 -0.777098 1.09356
4087 1 14.4547 35.9594 35.2194 -0.382522 -0.874375 1.41943 0.876611
4088 1 17.8047 26.9494 28.0294 -0.366244 -1.58905 1.40304 -0.800862
4089 1 21.0047 32.4794 37.0594 -0.416318 -0.455265 -0.0906611 0.376221
4090 1 22.9547 30.6994 33.5494 -0.394248 0.641305 1.45687 0.242585
4091 1 14.8147 31.1194 36.9894 -0.416527 -0.176565 0.565274 1.08142
4092 1 12.7447 33.6594 34.9394 -0.378106 1.90131 0.678154 1.19045
4093 1 21.9147 37.0194 32.4594 -0.329557 -1.40432 0.150338 0.697992
4094 1 13.8547 27.2094 29.0594 -0.409847 -0.897499 2.03044 -1.61843
4095 1 22.1347 28.5794 28.4494 -0.385425 -0.312379 -0.0177655 0.00842119
4096 1 13.1947 34.1094 32.2794 -0.389396 -0.0507436 -1.95391 0.371109
4097 2 23.5347 27.7594 27.6294 0.191006 0.24262 0.249618 -0.242636
4098 2 17.9547 30.3994 27.4894 0.193884 0.173009 -0.778941 1.25697
4099 2 12.6847 31.6894 28.1794 0.202655 0.689767 -0.383476 1.08408
4100 2 16.7247 29.0794 29.3494 0.179041 -0.617848 0.498778 0.550852
4101 2 16.0747 36.4494 36.6494 0.196223 -1.92572 -0.273384 -0.129463
4102 2 18.9747 36.9594 26.8794 0.175621 -0.00359946 -0.0767803 0.0487037
4103 2 17.8147 34.0294 35.7394 0.192167 0.344508 0.25077 -0.896794
4104 2 18.1847 35.1994 26.5294 0.184005 0.0442093 0.251641 0.0827913
4105 2 21.1547 35.9594 25.2994 0.17763 0.422547 -0.0590912 -0.67723
4106 2 12.7147 25.9294 33.1594 0.173441 -1.12375 -0.98962 0.443611
4107 2 17.9047 31.9694 36.0394 0.180687 0.23731 0.266806 0.0569099
4108 2 16.2847 29.0594 25.9494 0.193773 -0.430984 -1.5975 0.0114878
4109 2 23.9947 35.0794 29.0394 0.193318 -0.344378 -0.23835 -0.197761
4110 2 15.4447 33.0594 27.0294 0.185159 0.135005 -0.0815601 -0.0868495
4111 2 21.9747 34.9294 35.4494 0.183595 0.0382021 -1.11777 -0.571184
4112 2 23.6247 29.7294 30.9394 0.169879 -0.438842 0.441051 -1.51322
4113 2 13.1247 28.6494 37.3294 0.177372 -0.291541 -0.537389 -0.242298
4114 2 12.8747 30.3994 29.7694 0.191063 -0.911667 -0.445049 0.172007
4115 2 21.9547 34.3694 28.8294 0.198767 -0.777899 0.453493 0.709578
4116 2 21.5247 30.7794 34.5694 0.18363 -0.873538 -0.131885 0.694468
4117 2 20.3647 28.7194 25.6894 0.157297 -0.370781 1.9901 0.389999
4118 2 16.6747 28.1094 33.0994 0.191194 -1.42391 0.140273 -0.00568532
4119 2 17.7147 30.7894 33.0794 0.18637 0.23111 -0.0760505 -0.406378
4120 2 16.8847 35.7894 28.0294 0.186774 -0.369906 -0.593128 0.691868
4121 2 19.3747 29.4494 29.7794 0.1968 0.140625 0.23838 0.137505
4122 2 24.3247 26.4994 36.6394 0.177225 0.61359 1.15349 -0.980091
4123 2 19.2347 33.4294 27.9794 0.175367 0.099576 0.218338 0.449135
4124 2 18.0647 29.8794 35.0194 0.221124 0.00680427 -0.644036 0.23631
4125 2 15.5347 31.5494 31.8694 0.191091 1.43385 -0.115632 0.191255
4126 2 24.1747 33.1094 31.7494 0.191113 -0.600482 -0.54332 -0.0195898
4127 2 20.8447 28.3394 31.0694 0.180759 0.299568 0.121704 0.376304
4128 2 17.0847 27.2594 37.0494 0.183435 0.773977 -0.14829 -0.517169
4129 2 13.1847 36.5794 28.7494 0.193332 1.24463 0.486274 -0.165096
4130 2 13.5447 30.1894 34.6094 0.198265 -0.394013 -0.60749 0.476828
4131 2 19.9847 33.9994 25.7194 0.192117 -0.0556152 -0.517783 -0.239884
4132 2 23.8047 31.0894 36.7894 0.192143 -0.19416 -0.0569359 0.043958
4133 2 18.2947 27.0994 32.4194 0.183621 0.497825 1.05774 0.321725
4134 2 21.2547 26.8994 34.7794 0.182684 0.0117966 -0.0969207 -0.0594981
4135 2 14.6147 27.3194 32.3494 0.202487 -1.14914 -0.1704 -0.334917
4136 2 22.5447 27.4194 31.4394 0.181258 0.112985 -0.135616 -0.230564
4137 2 21.5147 29.1794 35.7994 0.184908 -0.265509 -0.504537 0.000999234
4138 2 13.0847 33.0194 26.3394 0.199679 0.509331 0.674721 -0.308501
4139 2 23.5647 29.0894 33.0294 0.202259 -0.183426 0.403099 0.312237
4140 2 23.4747 36.9194 25.4694 0.195342 0.754061 1.17491 0.0467473
4141 2 19.2747 26.7294 37.0794 0.187672 -0.296881 0.227225 0.205521
4142 2 21.5747 35.3394 32.1394 0.185572 -0.160223 0.106174 -0.443084
4143 2 14.2047 37.3294 31.6894 0.185592 -1.18379 1.35752 -0.0950521
4144 2 19.8147 36.7694 29.9694 0.175797 0.637224 -0.474333 -0.169103
4145 2 18.0347 33.1794 32.3294 0.218995 0.0580287 -0.600409 -0.18231
4146 2 20.5847 37.0094 35.7494 0.195424 -0.210872 -1.20674 0.445494
4147 2 17.9247 24.9494 31.2094 0.18894 0.122023 0.408562 -0.0842315
4148 2 13.4347 36.8794 25.2994 0.187845 0.420665 0.0199815 0.498783
4149 2 16.9847 35.8394 30.6794 0.183359 -0.0166709 0.130475 0.932393
4150 2 23.3847 31.1794 26.5394 0.201455 -0.0271757 0.593441 -0.475471
4151 2 14.9647 35.4394 34.6494 0.218254 1.17314 -0.879286 -1.41998
4152 2 17.1847 27.2994 27.3094 0.184875 0.756472 -0.550823 1.19336
4153 2 21.2847 33.1594 36.4494 0.185769 0.648351 0.253543 -0.371425
4154 2 23.3347 30.9494 34.4694 0.177024 -0.149961 -0.450752 -1.36988
4155 2 14.5947 30.8794 36.0694 0.183134 0.198166 0.153305 -0.208424
4156 2 12.9347 33.9494 34.0194 0.170818 -0.195462 -0.175688 0.133093
4157 2 21.1347 37.2294 33.0394 0.197812 0.866133 0.118081 -0.768108
4158 2 14.2047 26.3294 28.9594 0.192692 -0.221713 -1.0133 -0.531414
4159 2 22.4947 29.3294 28.9894 0.192315 -0.125965 -0.745332 -0.0156428
4160 2 13.8847 33.3794 32.2094 0.197897 -0.576791 0.9672 -0.266633
4161 2 24.6947 28.2094 26.5694 0.205745 -0.637712 -0.790007 0.707792
4162 2 18.7147 31.1094 26.4494 0.19505 -0.288682 -0.189983 -0.310418
4163 2 23.9447 32.7394 28.0294 0.211302 -0.832478 0.597951 0.813056
4164 2 15.4047 28.3294 29.4994 0.180348 -0.533167 -0.0679107 0.03158
4165 2 17.4847 36.0594 36.1894 0.203952 0.127375 -0.381036 -0.585046
4166 2 20.0447 37.2794 27.9194 0.186688 0.821804 -0.728669 2.61794
4167 2 18.3847 34.5694 34.2594 0.201526 -0.668955 -0.412476 0.824218
4168 2 17.3747 36.3494 25.8494 0.192241 -0.183057 0.0484281 -0.0612219
4169 2 21.3647 36.5694 26.5794 0.18221 -0.842568 1.45775 1.60211
4170 2 24.5147 26.2494 34.4294 0.171108 -0.388879 0.418107 1.32791
4171 2 16.6147 32.1694 36.6894 0.187174 -1.26442 -0.132451 0.62188
4172 2 15.1147 27.9794 25.9394 0.196792 0.335521 0.328193 0.0513114
4173 2 24.3347 35.4794 30.4494 0.212694 0.132243 -0.756158 2.53355
4174 2 16.7147 32.1194 27.0494 0.187744 0.0819513 0.0437499 -0.0145366
4175 2 23.2447 34.1094 35.0694 0.18992 -0.381696 -0.31247 0.000706302
4176 2 23.1247 31.0894 30.3294 0.199548 0.402552 -0.469558 -0.0890406
4177 2 13.9547 29.7894 25.4194 0.18783 -0.395827 -0.206735 0.454057
4178 2 14.3847 30.2494 29.4994 0.202921 1.01911 -0.676915 -0.246063
4179 2 22.4647 34.5294 27.3594 0.193895 -0.0946624 -0.934633 1.59327
4180 2 20.8547 31.3194 35.9294 0.181307 0.148154 0.822047 0.803392
4181 2 21.0247 29.1794 26.8994 0.171346 -0.324594 0.687879 0.564168
4182 2 15.5647 29.1694 33.2994 0.186041 -0.390234 -0.00343861 0.188252
4183 2 17.5647 30.4294 31.4894 0.200548 0.113952 0.0927087 0.568113
4184 2 16.4147 34.4694 28.7794 0.200318 -0.122318 0.404638 -0.363296
4185 2 18.6147 28.5194 28.7894 0.1805 0.0639794 0.428596 0.0335343
4186 2 23.8447 27.8094 35.8794 0.18612 0.0360081 -0.322503 0.130688
4187 2 18.4047 32.9094 29.1494 0.206263 1.14921 0.802736 -0.0191931
4188 2 19.2547 30.7894 34.7194 0.201106 2.05203 -0.296836 0.216445
4189 2 14.2747 31.4794 31.0494 0.187749 -0.772065 -0.352094 -1.05868
4190 2 22.6347 33.2494 31.7694 0.185475 -0.393806 -0.00302475 -0.0332442
4191 2 21.1847 29.5594 32.0094 0.196504 -0.744381 -0.329148 -0.441248
4192 2 17.2847 25.9694 36.2694 0.193743 0.366893 -0.11433 0.0286691
4193 2 14.8247 36.5994 28.5894 0.187953 -1.23537 0.0337518 0.0339374
4194 2 14.4647 30.9894 33.8094 0.193418 0.561637 -0.413345 0.78988
4195 2 18.4947 33.3694 25.4994 0.185432 1.45643 0.977458 0.978247
4196 2 24.5647 31.9394 35.6994 0.183183 0.124952 0.2753 0.11092
4197 2 19.2547 28.3494 32.1994 0.173814 -1.21253 -0.276875 1.47207
4198 2 19.9647 26.8794 33.9894 0.171167 0.337083 -0.725405 0.216961
4199 2 13.6947 27.1494 31.0694 0.198333 -0.100625 0.233894 -1.44322
4200 2 21.7547 26.0794 31.2394 0.177467 0.392019 1.8779 -1.00921
4201 2 21.2847 27.7894 36.5794 0.189554 0.0720243 0.182725 -0.115906
4202 2 13.8347 34.3294 25.7394 0.203751 -0.146567 0.597054 0.00256903
4203 2 24.5747 28.1094 32.3894 0.198004 2.70535 -1.03042 0.0528958
4204 2 23.8247 25.8394 26.2294 0.189016 1.08991 -0.904638 -1.3561
4205 2 19.8747 26.7094 26.1294 0.192864 0.55176 -0.285858 -1.97597
4206 2 21.5947 34.3194 33.1694 0.178035 0.441243 -0.710184 2.23728
4207 2 15.4147 36.5494 31.7694 0.189437 0.458862 -0.880796 0.13972
4208 2 19.9447 35.3194 29.3594 0.181809 0.703655 1.28921 0.431935
4209 2 19.1347 34.2894 32.3594 0.206108 2.27191 -0.0386647 -0.808158
4210 2 19.7347 35.6594 35.8194 0.190336 -0.341774 -0.0505366 -0.2274
4211 2 17.8947 25.9594 30.0094 0.197986 -0.0709191 0.236627 -0.237704
4212 2 14.3647 36.4594 26.5094 0.180733 -0.408995 0.66742 -0.854415
4213 2 17.4947 35.4394 32.1494 0.212012 -0.248112 -0.144031 -0.37694
4214 2 22.1747 30.4094 25.9994 0.183029 -0.544851 -0.011448 -0.514608
4215 2 14.1747 36.7394 34.7094 0.204137 -0.0845153 -0.535746 0.289256
4216 2 18.4647 26.4594 27.5594 0.172569 0.7004 -0.752368 -0.238809
4217 2 21.7847 32.0894 25.0994 0.198756 -0.392314 0.548759 -0.176817
4218 2 23.1547 31.4494 32.8594 0.182267 -0.32312 -1.06153 1.28721
4219 2 14.3047 31.9194 37.2594 0.189126 0.48066 -0.368911 -0.146704
4220 2 13.5247 34.0494 35.4794 0.184945 -2.28758 -0.741723 -1.18023
4221 2 22.6347 37.2794 33.0394 0.190646 0.843598 0.202303 0.0267767
4222 2 13.3647 27.4494 28.1694 0.175966 0.878419 -1.05619 2.45229
4223 2 21.7847 27.8994 29.0594 0.202541 0.483841 0.409821 -0.157706
4224 2 13.5547 34.9794 32.0994 0.213347 0.787001 0.737315 -0.312227
4225 1 11.83 39.8941 27.0694 -0.41849 0.276272 0.657232 -0.200453
4226 1 5.36 43.3341 26.6994 -0.356017 0.340913 0.424433 -0.894543
4227 1 12.17 44.6741 27.5994 -0.375672 0.108521 -0.210875 -1.85839
4228 1 3.38 41.6141 29.7294 -0.401224 0.921442 -0.302102 -0.574782
4229 1 4.54 49.0641 36.7894 -0.352543 1.21087 0.715105 0.323292
4230 1 7.34 37.5141 27.0694 -0.375672 -0.527886 1.20554 -1.95313
4231 1 5.73 47.2341 35.1994 -0.425659 0.260763 0.043788 0.365855
4232 1 5.32 48.5241 26.7194 -0.352291 -0.145294 -0.360941 0.00937802
4233 1 9.39 48.4741 25.9894 -0.384824 0.872347 -1.54214 -0.918624
4234 1 12.06 37.9741 33.8094 -0.432941 1.38581 0.308689 -1.86879
4235 1 5.01 45.0541 36.6294 -0.33121 1.05767 -0.0925146 -0.578508
4236 1 3.64 40.5241 25.9694 -0.329397 0.448993 1.35168 0.0296323
4237 1 11.88 48.2341 29.5894 -0.392604 0.205206 1.05595 -2.45385
4238 1 3.88 45.3841 27.3994 -0.464722 -0.268844 0.355876 0.230368
4239 1 9.82 46.4941 35.0694 -0.365583 0.339113 1.66963 0.487172
4240 1 11 42.6441 30.0594 -0.319963 0.138439 0.0560932 1.91458
4241 1 0.97 41.4541 25.7294 -0.355457 0.745141 0.775232 -0.73771
4242 1 1.24 43.3241 29.6494 -0.374759 -0.193242 0.928603 -0.354914
4243 1 10.1 46.4241 28.2094 -0.354105 0.910884 0.64511 -2.49253
4244 1 8.39 43.0541 35.2794 -0.373467 0.806772 -0.606287 -1.83735
4245 1 8.06 42.0541 26.1894 -0.36779 0.704108 -2.90776 -0.607341
4246 1 3.23 40.6741 33.1494 -0.401809 2.13809 -0.397451 -0.157447
4247 1 5.02 43.5441 32.1794 -0.410388 -0.430379 0.366308 -0.265
4248 1 3.94 47.8841 28.8394 -0.402417 0.433442 0.317385 -0.0584335
4249 1 6.25 41.8941 29.0994 -0.380616 -0.393408 -0.784993 -0.268437
4250 1 12.18 39.6841 35.9994 -0.382164 -0.8474 -0.742899 1.12305
4251 1 6.76 45.9041 28.9594 -0.403468 -1.14814 -0.761849 -0.553724
4252 1 5.87 43.1741 34.6794 -0.349098 -2.30359 0.637258 -0.272994
4253 1 2.18 44.2441 31.8794 -0.400385 -0.466047 0.744031 1.54717
4254 1 10.89 45.0241 31.6694 -0.350546 0.885488 0.570822 0.0353097
4255 1 8.03 41.6141 31.4594 -0.327247 0.482395 0.0230219 -0.079888
4256 1 5.29 39.2541 36.4494 -0.420459 -1.16671 0.352014 0.519722
4257 1 1.53 49.4941 28.3394 -0.410573 0.411211 -0.955703 0.467785
4258 1 2.04 42.8241 34.5994 -0.307416 -0.567445 1.07235 -2.1071
4259 1 6.66 46.3841 26.0994 -0.337037 -1.6184 -1.07739 -0.67025
4260 1 11.75 43.5141 35.8994 -0.375509 0.10925 0.0674901 -0.490546
4261 1 6.11 40.4041 32.8494 -0.386894 0.529752 -0.930013 -1.62595
4262 1 8.22 38.7141 34.3194 -0.395923 -0.580908 0.677738 -0.139505
4263 1 1.31 39.3541 31.9794 -0.381656 1.03092 0.0207551 1.57355
4264 1 9.48 39.4441 30.8094 -0.386544 -0.466551 -1.80293 1.20747
4265 1 9.33 40.6741 35.8594 -0.415653 0.36726 -0.156938 0.177785
4266 1 1.31 45.8241 25.6994 -0.391658 -0.324856 -1.14427 0.312413
4267 1 11.25 40.8141 32.3994 -0.362951 -2.51328 0.883629 -0.60026
4268 1 11.7 37.6641 25.4894 -0.377211 -1.746 -0.0721719 1.00752
4269 1 7.63 39.3741 25.1694 -0.388923 0.179839 0.446068 1.55241
4270 1 8.86 46.8541 32.2894 -0.387579 -0.342399 0.412198 -1.61056
4271 1 2.01 48.8741 31.7794 -0.409735 0.352722 -0.503183 0.166525
4272 1 8.02 48.6041 29.5494 -0.386294 -1.67358 -0.912965 -0.155667
4273 1 5.82 46.5141 32.5994 -0.322041 -1.62597 0.149873 0.93982
4274 1 8.11 48.5241 36.1094 -0.344451 0.363619 1.24919 -0.54402
4275 1 5.94 38.1741 30.7994 -0.430297 0.345418 0.00809825 0.132073
4276 1 1.88 48.9941 25.5294 -0.447611 -0.0496892 -0.645398 0.598321
4277 1 4.66 48.6141 31.6194 -0.350741 -0.301473 -0.466368 -1.15942
4278 1 10.32 43.5941 25.7794 -0.326365 0.996631 -0.777156 1.09356
4279 1 2.01 48.4041 35.2194 -0.382521 -0.87448 1.4196 0.876615
4280 1 5.36 39.3941 28.0294 -0.366244 -1.58899 1.403 -0.800873
4281 1 8.56 44.9241 37.0594 -0.416319 -0.455309 -0.0906525 0.37622
4282 1 10.51 43.1441 33.5494 -0.394248 0.641318 1.45687 0.242583
4283 1 2.37 43.5641 36.9894 -0.416527 -0.176614 0.565391 1.08148
4284 1 0.3 46.1041 34.9394 -0.378105 1.90131 0.678157 1.19046
4285 1 9.47 49.4641 32.4594 -0.329556 -1.40443 0.150334 0.697982
4286 1 1.41 39.6541 29.0594 -0.409848 -0.897577 2.03063 -1.61842
4287 1 9.69 41.0241 28.4494 -0.385426 -0.31238 -0.0177836 0.00845171
4288 1 0.75 46.5541 32.2794 -0.389396 -0.0507759 -1.95383 0.371109
4289 2 11.09 40.2041 27.6294 0.191006 0.242637 0.249606 -0.242651
4290 2 5.51 42.8441 27.4894 0.193885 0.173017 -0.778968 1.25701
4291 2 0.24 44.1341 28.1794 0.202655 0.689832 -0.383542 1.08415
4292 2 4.28 41.5241 29.3494 0.179041 -0.617829 0.498775 0.550843
4293 2 3.63 48.8941 36.6494 0.196223 -1.92571 -0.273387 -0.129466
4294 2 6.53 49.4041 26.8794 0.175621 -0.00356053 -0.0767463 0.0487084
4295 2 5.37 46.4741 35.7394 0.192166 0.344537 0.250858 -0.896829
4296 2 5.74 47.6441 26.5294 0.184005 0.0441681 0.251743 0.0828019
4297 2 8.71 48.4041 25.2994 0.17763 0.422547 -0.0590918 -0.677233
4298 2 0.27 38.3741 33.1594 0.17344 -1.12378 -0.989646 0.443631
4299 2 5.46 44.4141 36.0394 0.180688 0.237306 0.266775 0.056895
4300 2 3.84 41.5041 25.9494 0.193773 -0.430979 -1.59742 0.0114861
4301 2 11.55 47.5241 29.0394 0.193318 -0.344379 -0.238347 -0.197775
4302 2 3 45.5041 27.0294 0.185159 0.135044 -0.0815625 -0.0868317
4303 2 9.53 47.3741 35.4494 0.183594 0.038214 -1.11778 -0.571187
4304 2 11.18 42.1741 30.9394 0.169879 -0.438848 0.441072 -1.51324
4305 2 0.68 41.0941 37.3294 0.177371 -0.291531 -0.537371 -0.242267
4306 2 0.43 42.8441 29.7694 0.191063 -0.911687 -0.44506 0.172008
4307 2 9.51 46.8141 28.8294 0.198767 -0.777899 0.453492 0.709578
4308 2 9.08 43.2241 34.5694 0.18363 -0.873509 -0.131865 0.694447
4309 2 7.92 41.1641 25.6894 0.157297 -0.370777 1.9901 0.390002
4310 2 4.23 40.5541 33.0994 0.191194 -1.4239 0.140265 -0.00568523
4311 2 5.27 43.2341 33.0794 0.18637 0.231101 -0.0760329 -0.406398
4312 2 4.44 48.2341 28.0294 0.186774 -0.3699 -0.593123 0.691863
4313 2 6.93 41.8941 29.7794 0.1968 0.140636 0.238381 0.137515
4314 2 11.88 38.9441 36.6394 0.177225 0.613582 1.15349 -0.980086
4315 2 6.79 45.8741 27.9794 0.175368 0.0995725 0.218339 0.449136
4316 2 5.62 42.3241 35.0194 0.221125 0.00678416 -0.644121 0.236344
4317 2 3.09 43.9941 31.8694 0.191091 1.43389 -0.115645 0.191252
4318 2 11.73 45.5541 31.7494 0.191114 -0.600412 -0.543248 -0.0195815
4319 2 8.4 40.7841 31.0694 0.180759 0.299534 0.121764 0.376327
4320 2 4.64 39.7041 37.0494 0.183436 0.774007 -0.148317 -0.517197
4321 2 0.74 49.0241 28.7494 0.193333 1.24459 0.486231 -0.165067
4322 2 1.1 42.6341 34.6094 0.198266 -0.394064 -0.607503 0.476832
4323 2 7.54 46.4441 25.7194 0.192116 -0.0556387 -0.517777 -0.239867
4324 2 11.36 43.5341 36.7894 0.192143 -0.194154 -0.0569423 0.0439449
4325 2 5.85 39.5441 32.4194 0.183621 0.497796 1.05763 0.321672
4326 2 8.81 39.3441 34.7794 0.182684 0.0117946 -0.0969159 -0.0594967
4327 2 2.17 39.7641 32.3494 0.202487 -1.14914 -0.170399 -0.334914
4328 2 10.1 39.8641 31.4394 0.181258 0.112966 -0.135635 -0.230584
4329 2 9.07 41.6241 35.7994 0.184907 -0.265489 -0.504604 0.000999177
4330 2 0.64 45.4641 26.3394 0.199679 0.509362 0.674756 -0.308528
4331 2 11.12 41.5341 33.0294 0.202259 -0.183428 0.403059 0.312197
4332 2 11.03 49.3641 25.4694 0.195342 0.754039 1.17487 0.0467448
4333 2 6.83 39.1741 37.0794 0.187671 -0.296845 0.22724 0.205536
4334 2 9.13 47.7841 32.1394 0.185572 -0.160232 0.106151 -0.443083
4335 2 1.76 49.7741 31.6894 0.185591 -1.18373 1.35731 -0.0950312
4336 2 7.37 49.2141 29.9694 0.175797 0.637209 -0.474321 -0.169097
4337 2 5.59 45.6241 32.3294 0.218995 0.0580419 -0.600407 -0.182316
4338 2 8.14 49.4541 35.7494 0.195424 -0.210892 -1.20675 0.445488
4339 2 5.48 37.3941 31.2094 0.188941 0.121992 0.408517 -0.0842078
4340 2 0.99 49.3241 25.2994 0.187845 0.4207 0.019961 0.498793
4341 2 4.54 48.2841 30.6794 0.183359 -0.0166744 0.130504 0.932416
4342 2 10.94 43.6241 26.5394 0.201455 -0.0271567 0.593443 -0.475452
4343 2 2.52 47.8841 34.6494 0.218255 1.17321 -0.879354 -1.42006
4344 2 4.74 39.7441 27.3094 0.184875 0.756452 -0.550803 1.19335
4345 2 8.84 45.6041 36.4494 0.185769 0.648359 0.253552 -0.371434
4346 2 10.89 43.3941 34.4694 0.177024 -0.149968 -0.450756 -1.36988
4347 2 2.15 43.3241 36.0694 0.183133 0.198159 0.153295 -0.208449
4348 2 0.49 46.3941 34.0194 0.170818 -0.195464 -0.17569 0.133093
4349 2 8.69 49.6741 33.0394 0.197812 0.866183 0.118068 -0.768142
4350 2 1.76 38.7741 28.9594 0.192692 -0.221641 -1.01348 -0.531433
4351 2 10.05 41.7741 28.9894 0.192316 -0.125977 -0.745353 -0.0156501
4352 2 1.44 45.8241 32.2094 0.197897 -0.576746 0.967129 -0.266635
4353 2 12.25 40.6541 26.5694 0.205745 -0.637694 -0.789966 0.707768
4354 2 6.27 43.5541 26.4494 0.195051 -0.288699 -0.189987 -0.310415
4355 2 11.5 45.1841 28.0294 0.211302 -0.832401 0.597896 0.813004
4356 2 2.96 40.7741 29.4994 0.180348 -0.533165 -0.0679127 0.0315817
4357 2 5.04 48.5041 36.1894 0.203951 0.12743 -0.381106 -0.585114
4358 2 7.6 49.7241 27.9194 0.186687 0.821794 -0.728663 2.6179
4359 2 5.94 47.0141 34.2594 0.201525 -0.668953 -0.412453 0.824235
4360 2 4.93 48.7941 25.8494 0.192241 -0.183044 0.0484164 -0.0612128
4361 2 8.92 49.0141 26.5794 0.182209 -0.842554 1.45773 1.60209
4362 2 12.07 38.6941 34.4294 0.171108 -0.388881 0.418047 1.32786
4363 2 4.17 44.6141 36.6894 0.187175 -1.2645 -0.132504 0.621876
4364 2 2.67 40.4241 25.9394 0.196793 0.335573 0.328216 0.0513118
4365 2 11.89 47.9241 30.4494 0.212694 0.132246 -0.756127 2.53347
4366 2 4.27 44.5641 27.0494 0.187744 0.081911 0.0438511 -0.0144935
4367 2 10.8 46.5541 35.0694 0.189919 -0.381738 -0.312467 0.000709016
4368 2 10.68 43.5341 30.3294 0.199547 0.402554 -0.469561 -0.0890358
4369 2 1.51 42.2341 25.4194 0.18783 -0.395787 -0.206679 0.454034
4370 2 1.94 42.6941 29.4994 0.202921 1.0191 -0.676905 -0.246062
4371 2 10.02 46.9741 27.3594 0.193894 -0.0946641 -0.93463 1.59326
4372 2 8.41 43.7641 35.9294 0.181308 0.148164 0.822096 0.803428
4373 2 8.58 41.6241 26.8994 0.171346 -0.324582 0.68787 0.564185
4374 2 3.12 41.6141 33.2994 0.186039 -0.390216 -0.00363229 0.188222
4375 2 5.12 42.8741 31.4894 0.200548 0.113939 0.0927646 0.568155
4376 2 3.97 46.9141 28.7794 0.200318 -0.122321 0.404635 -0.363296
4377 2 6.17 40.9641 28.7894 0.180499 0.0639782 0.428597 0.0335339
4378 2 11.4 40.2541 35.8794 0.186121 0.0360061 -0.322506 0.130691
4379 2 5.96 45.3541 29.1494 0.206263 1.14918 0.80272 -0.0191898
4380 2 6.81 43.2341 34.7194 0.201106 2.05204 -0.296839 0.216445
4381 2 1.83 43.9241 31.0494 0.187749 -0.772061 -0.35209 -1.05867
4382 2 10.19 45.6941 31.7694 0.185476 -0.393824 -0.00297475 -0.0332386
4383 2 8.74 42.0041 32.0094 0.196504 -0.744382 -0.329138 -0.441242
4384 2 4.84 38.4141 36.2694 0.193742 0.366902 -0.11431 0.028675
4385 2 2.38 49.0441 28.5894 0.187954 -1.23532 0.0337048 0.0339617
4386 2 2.02 43.4341 33.8094 0.193418 0.56164 -0.413344 0.789877
4387 2 6.05 45.8141 25.4994 0.185431 1.45644 0.977494 0.978275
4388 2 12.12 44.3841 35.6994 0.183182 0.124885 0.275138 0.110949
4389 2 6.81 40.7941 32.1994 0.173814 -1.21256 -0.276906 1.4721
4390 2 7.52 39.3241 33.9894 0.171167 0.337115 -0.725427 0.216975
4391 2 1.25 39.5941 31.0694 0.198333 -0.100625 0.233886 -1.44319
4392 2 9.31 38.5241 31.2394 0.177467 0.392008 1.87786 -1.00919
4393 2 8.84 40.2341 36.5794 0.189554 0.072008 0.182702 -0.115879
4394 2 1.39 46.7741 25.7394 0.203751 -0.146575 0.597054 0.00257491
4395 2 12.13 40.5541 32.3894 0.198004 2.70533 -1.03042 0.0528896
4396 2 11.38 38.2841 26.2294 0.189016 1.08991 -0.904637 -1.3561
4397 2 7.43 39.1541 26.1294 0.192864 0.551775 -0.285844 -1.97599
4398 2 9.15 46.7641 33.1694 0.178035 0.441238 -0.710186 2.23727
4399 2 2.97 48.9941 31.7694 0.189438 0.45882 -0.880797 0.139718
4400 2 7.5 47.7641 29.3594 0.181808 0.703654 1.28921 0.431934
4401 2 6.69 46.7341 32.3594 0.206108 2.27191 -0.0386766 -0.808163
4402 2 7.29 48.1041 35.8194 0.190336 -0.341779 -0.0505156 -0.227409
4403 2 5.45 38.4041 30.0094 0.197987 -0.0709402 0.236635 -0.237732
4404 2 1.92 48.9041 26.5094 0.180734 -0.408996 0.667421 -0.854419
4405 2 5.05 47.8841 32.1494 0.212012 -0.24812 -0.144018 -0.376937
4406 2 9.73 42.8541 25.9994 0.183029 -0.544816 -0.0113975 -0.514624
4407 2 1.73 49.1841 34.7094 0.204137 -0.0844811 -0.535853 0.289328
4408 2 6.02 38.9041 27.5594 0.17257 0.700361 -0.752338 -0.238779
4409 2 9.34 44.5341 25.0994 0.198756 -0.392293 0.548756 -0.176808
4410 2 10.71 43.8941 32.8594 0.182266 -0.323125 -1.06154 1.28721
4411 2 1.86 44.3641 37.2594 0.189126 0.480717 -0.369007 -0.146732
4412 2 1.08 46.4941 35.4794 0.184944 -2.28758 -0.741726 -1.18024
4413 2 10.19 49.7241 33.0394 0.190646 0.843651 0.202322 0.0268195
4414 2 0.92 39.8941 28.1694 0.175966 0.878426 -1.0562 2.4523
4415 2 9.34 40.3441 29.0594 0.202541 0.483857 0.409857 -0.157729
4416 2 1.11 47.4241 32.0994 0.213347 0.786987 0.737315 -0.312224
4417 1 24.2747 39.8941 27.0694 -0.418491 0.276274 0.657234 -0.200455
4418 1 17.8047 43.3341 26.6994 -0.356018 0.340911 0.42444 -0.894548
4419 1 24.6147 44.6741 27.5994 -0.375672 0.108523 -0.210878 -1.85839
4420 1 15.8247 41.6141 29.7294 -0.401224 0.921459 -0.302103 -0.574789
4421 1 16.9847 49.0641 36.7894 -0.352543 1.21087 0.715104 0.323289
4422 1 19.7847 37.5141 27.0694 -0.37567 -0.527878 1.20554 -1.95312
4423 1 18.1747 47.2341 35.1994 -0.425659 0.260761 0.0437858 0.365851
4424 1 17.7647 48.5241 26.7194 -0.352291 -0.145279 -0.360951 0.00938408
4425 1 21.8347 48.4741 25.9894 -0.384824 0.872361 -1.54216 -0.918641
4426 1 24.5047 37.9741 33.8094 -0.432941 1.38582 0.308696 -1.8688
4427 1 17.4547 45.0541 36.6294 -0.33121 1.05765 -0.092505 -0.578497
4428 1 16.0847 40.5241 25.9694 -0.329397 0.449027 1.35169 0.0296332
4429 1 24.3247 48.2341 29.5894 -0.392605 0.205208 1.05595 -2.45385
4430 1 16.3247 45.3841 27.3994 -0.464722 -0.268787 0.355851 0.230377
4431 1 22.2647 46.4941 35.0694 -0.365582 0.339081 1.66963 0.48717
4432 1 23.4447 42.6441 30.0594 -0.319963 0.138442 0.0560954 1.91458
4433 1 13.4147 41.4541 25.7294 -0.355458 0.74515 0.775245 -0.737716
4434 1 13.6847 43.3241 29.6494 -0.374759 -0.193273 0.928601 -0.354908
4435 1 22.5447 46.4241 28.2094 -0.354105 0.910884 0.645109 -2.49253
4436 1 20.8347 43.0541 35.2794 -0.373468 0.806795 -0.606282 -1.83737
4437 1 20.5047 42.0541 26.1894 -0.36779 0.704127 -2.90776 -0.607324
4438 1 15.6747 40.6741 33.1494 -0.401808 2.13809 -0.397454 -0.157447
4439 1 17.4647 43.5441 32.1794 -0.410387 -0.430385 0.366317 -0.265001
4440 1 16.3847 47.8841 28.8394 -0.402417 0.433438 0.317387 -0.0584309
4441 1 18.6947 41.8941 29.0994 -0.380616 -0.393397 -0.784992 -0.268428
4442 1 24.6247 39.6841 35.9994 -0.382164 -0.847407 -0.742907 1.12306
4443 1 19.2047 45.9041 28.9594 -0.403468 -1.14817 -0.761868 -0.55372
4444 1 18.3147 43.1741 34.6794 -0.349098 -2.30357 0.637262 -0.272992
4445 1 14.6247 44.2441 31.8794 -0.400385 -0.465997 0.74402 1.54717
4446 1 23.3347 45.0241 31.6694 -0.350546 0.885564 0.570801 0.0353047
4447 1 20.4747 41.6141 31.4594 -0.327248 0.482364 0.023026 -0.0799001
4448 1 17.7347 39.2541 36.4494 -0.42046 -1.16669 0.352027 0.519719
4449 1 13.9747 49.4941 28.3394 -0.410573 0.411218 -0.955708 0.467789
4450 1 14.4847 42.8241 34.5994 -0.307416 -0.567479 1.07235 -2.10709
4451 1 19.1047 46.3841 26.0994 -0.337037 -1.61845 -1.07739 -0.670241
4452 1 24.1947 43.5141 35.8994 -0.375509 0.109251 0.0674767 -0.490557
4453 1 18.5547 40.4041 32.8494 -0.386894 0.529736 -0.930018 -1.62594
4454 1 20.6647 38.7141 34.3194 -0.395923 -0.580876 0.677718 -0.139489
4455 1 13.7547 39.3541 31.9794 -0.381657 1.03093 0.0207597 1.57355
4456 1 21.9247 39.4441 30.8094 -0.386544 -0.466553 -1.80294 1.20747
4457 1 21.7747 40.6741 35.8594 -0.415654 0.367258 -0.156938 0.177788
4458 1 13.7547 45.8241 25.6994 -0.391658 -0.324856 -1.14427 0.312413
4459 1 23.6947 40.8141 32.3994 -0.362952 -2.51334 0.883648 -0.600259
4460 1 24.1447 37.6641 25.4894 -0.377211 -1.74597 -0.0721354 1.00752
4461 1 20.0747 39.3741 25.1694 -0.388923 0.179877 0.446079 1.55242
4462 1 21.3047 46.8541 32.2894 -0.387579 -0.342415 0.412177 -1.61057
4463 1 14.4547 48.8741 31.7794 -0.409735 0.35268 -0.503185 0.166525
4464 1 20.4647 48.6041 29.5494 -0.386294 -1.6736 -0.912949 -0.155659
4465 1 18.2647 46.5141 32.5994 -0.322041 -1.62591 0.149889 0.939807
4466 1 20.5547 48.5241 36.1094 -0.344452 0.363543 1.24916 -0.544047
4467 1 18.3847 38.1741 30.7994 -0.430297 0.345385 0.00808637 0.132047
4468 1 14.3247 48.9941 25.5294 -0.44761 -0.0496984 -0.645394 0.598315
4469 1 17.1047 48.6141 31.6194 -0.350741 -0.301483 -0.466353 -1.15943
4470 1 22.7647 43.5941 25.7794 -0.326365 0.996644 -0.777152 1.09357
4471 1 14.4547 48.4041 35.2194 -0.382522 -0.874497 1.41962 0.876623
4472 1 17.8047 39.3941 28.0294 -0.366243 -1.589 1.403 -0.800876
4473 1 21.0047 44.9241 37.0594 -0.416319 -0.455273 -0.0906517 0.376226
4474 1 22.9547 43.1441 33.5494 -0.394248 0.641308 1.45687 0.242578
4475 1 14.8147 43.5641 36.9894 -0.416526 -0.176624 0.565395 1.08147
4476 1 12.7447 46.1041 34.9394 -0.378105 1.9013 0.678154 1.19046
4477 1 21.9147 49.4641 32.4594 -0.329557 -1.40432 0.150345 0.697993
4478 1 13.8547 39.6541 29.0594 -0.409847 -0.897575 2.03063 -1.61842
4479 1 22.1347 41.0241 28.4494 -0.385426 -0.312398 -0.0178119 0.00844908
4480 1 13.1947 46.5541 32.2794 -0.389396 -0.0507899 -1.95383 0.371113
4481 2 23.5347 40.2041 27.6294 0.191006 0.242638 0.249607 -0.24265
4482 2 17.9547 42.8441 27.4894 0.193885 0.17302 -0.77897 1.25702
4483 2 12.6847 44.1341 28.1794 0.202655 0.689833 -0.383543 1.08415
4484 2 16.7247 41.5241 29.3494 0.17904 -0.617848 0.498776 0.550851
4485 2 16.0747 48.8941 36.6494 0.196223 -1.92571 -0.273387 -0.129465
4486 2 18.9747 49.4041 26.8794 0.175621 -0.00356898 -0.0767502 0.0487081
4487 2 17.8147 46.4741 35.7394 0.192166 0.344543 0.250862 -0.896832
4488 2 18.1847 47.6441 26.5294 0.184005 0.0441641 0.251749 0.0828047
4489 2 21.1547 48.4041 25.2994 0.17763 0.422547 -0.0590896 -0.677231
4490 2 12.7147 38.3741 33.1594 0.17344 -1.12376 -0.989637 0.443619
4491 2 17.9047 44.4141 36.0394 0.180688 0.237322 0.266763 0.0568815
4492 2 16.2847 41.5041 25.9494 0.193773 -0.430984 -1.59743 0.0114866
4493 2 23.9947 47.5241 29.0394 0.193318 -0.344379 -0.238346 -0.197775
4494 2 15.4447 45.5041 27.0294 0.185159 0.135004 -0.0815603 -0.0868503
4495 2 21.9747 47.3741 35.4494 0.183594 0.0382043 -1.11777 -0.571184
4496 2 23.6247 42.1741 30.9394 0.169879 -0.438849 0.441073 -1.51324
4497 2 13.1247 41.0941 37.3294 0.177372 -0.29153 -0.537371 -0.242268
4498 2 12.8747 42.8441 29.7694 0.191063 -0.911666 -0.445048 0.172004
4499 2 21.9547 46.8141 28.8294 0.198767 -0.7779 0.453492 0.709579
4500 2 21.5247 43.2241 34.5694 0.183631 -0.87353 -0.131872 0.694463
4501 2 20.3647 41.1641 25.6894 0.157297 -0.370782 1.9901 0.39
4502 2 16.6747 40.5541 33.0994 0.191194 -1.4239 0.140262 -0.00568608
4503 2 17.7147 43.2341 33.0794 0.186369 0.231101 -0.0760359 -0.406396
4504 2 16.8847 48.2341 28.0294 0.186774 -0.369902 -0.593125 0.691864
4505 2 19.3747 41.8941 29.7794 0.1968 0.140625 0.238381 0.137506
4506 2 24.3247 38.9441 36.6394 0.177226 0.613589 1.15349 -0.980091
4507 2 19.2347 45.8741 27.9794 0.175367 0.0995766 0.21834 0.449136
4508 2 18.0647 42.3241 35.0194 0.221124 0.00678556 -0.644121 0.236343
4509 2 15.5347 43.9941 31.8694 0.191091 1.43385 -0.115632 0.191254
4510 2 24.1747 45.5541 31.7494 0.191114 -0.600437 -0.543266 -0.0195837
4511 2 20.8447 40.7841 31.0694 0.180758 0.299542 0.121757 0.376326
4512 2 17.0847 39.7041 37.0494 0.183436 0.773998 -0.148315 -0.517193
4513 2 13.1847 49.0241 28.7494 0.193333 1.24459 0.486232 -0.165068
4514 2 13.5447 42.6341 34.6094 0.198266 -0.394033 -0.607498 0.476831
4515 2 19.9847 46.4441 25.7194 0.192116 -0.0555973 -0.517774 -0.239885
4516 2 23.8047 43.5341 36.7894 0.192142 -0.194163 -0.0569447 0.0439602
4517 2 18.2947 39.5441 32.4194 0.18362 0.497796 1.05763 0.321672
4518 2 21.2547 39.3441 34.7794 0.182684 0.0117976 -0.0969184 -0.0594953
4519 2 14.6147 39.7641 32.3494 0.202487 -1.14914 -0.170401 -0.334914
4520 2 22.5447 39.8641 31.4394 0.181258 0.112964 -0.135637 -0.230585
4521 2 21.5147 41.6241 35.7994 0.184907 -0.26549 -0.504603 0.000998514
4522 2 13.0847 45.4641 26.3394 0.199679 0.509363 0.674755 -0.308529
4523 2 23.5647 41.5341 33.0294 0.20226 -0.183423 0.403055 0.312195
4524 2 23.4747 49.3641 25.4694 0.195342 0.754006 1.17484 0.046744
4525 2 19.2747 39.1741 37.0794 0.187672 -0.296866 0.227235 0.205527
4526 2 21.5747 47.7841 32.1394 0.185571 -0.160223 0.106171 -0.443083
4527 2 14.2047 49.7741 31.6894 0.185591 -1.18373 1.35731 -0.0950314
4528 2 19.8147 49.2141 29.9694 0.175797 0.637227 -0.474335 -0.169106
4529 2 18.0347 45.6241 32.3294 0.218995 0.058041 -0.600412 -0.182317
4530 2 20.5847 49.4541 35.7494 0.195424 -0.210883 -1.20674 0.44549
4531 2 17.9247 37.3941 31.2094 0.188941 0.122005 0.408529 -0.0842107
4532 2 13.4347 49.3241 25.2994 0.187844 0.420709 0.0199572 0.498798
4533 2 16.9847 48.2841 30.6794 0.183359 -0.0166705 0.130504 0.93242
4534 2 23.3847 43.6241 26.5394 0.201456 -0.0271752 0.593441 -0.475469
4535 2 14.9647 47.8841 34.6494 0.218255 1.17322 -0.879366 -1.42007
4536 2 17.1847 39.7441 27.3094 0.184875 0.75646 -0.550807 1.19335
4537 2 21.2847 45.6041 36.4494 0.185769 0.64835 0.253542 -0.371426
4538 2 23.3347 43.3941 34.4694 0.177024 -0.149961 -0.450753 -1.36988
4539 2 14.5947 43.3241 36.0694 0.183133 0.198163 0.153295 -0.208446
4540 2 12.9347 46.3941 34.0194 0.170818 -0.195462 -0.175689 0.133091
4541 2 21.1347 49.6741 33.0394 0.197812 0.866133 0.118079 -0.768109
4542 2 14.2047 38.7741 28.9594 0.192692 -0.221644 -1.01347 -0.531433
4543 2 22.4947 41.7741 28.9894 0.192316 -0.125966 -0.745335 -0.0156392
4544 2 13.8847 45.8241 32.2094 0.197897 -0.576736 0.967122 -0.266637
4545 2 24.6947 40.6541 26.5694 0.205745 -0.637695 -0.789968 0.707769
4546 2 18.7147 43.5541 26.4494 0.195051 -0.2887 -0.18999 -0.310412
4547 2 23.9447 45.1841 28.0294 0.211303 -0.832402 0.597896 0.813004
4548 2 15.4047 40.7741 29.4994 0.180348 -0.533162 -0.0679114 0.0315817
4549 2 17.4847 48.5041 36.1894 0.203951 0.127431 -0.381105 -0.585115
4550 2 20.0447 49.7241 27.9194 0.186687 0.821791 -0.728661 2.61789
4551 2 18.3847 47.0141 34.2594 0.201526 -0.668956 -0.412452 0.824241
4552 2 17.3747 48.7941 25.8494 0.192241 -0.183053 0.0484209 -0.0612229
4553 2 21.3647 49.0141 26.5794 0.18221 -0.842567 1.45775 1.60211
4554 2 24.5147 38.6941 34.4294 0.171108 -0.388884 0.418048 1.32787
4555 2 16.6147 44.6141 36.6894 0.187175 -1.2645 -0.132501 0.621878
4556 2 15.1147 40.4241 25.9394 0.196793 0.335546 0.328215 0.0513111
4557 2 24.3347 47.9241 30.4494 0.212693 0.132245 -0.756127 2.53347
4558 2 16.7147 44.5641 27.0494 0.187745 0.0818966 0.0438718 -0.0144852
4559 2 23.2447 46.5541 35.0694 0.189919 -0.381697 -0.312468 0.00070718
4560 2 23.1247 43.5341 30.3294 0.199547 0.402553 -0.469562 -0.0890346
4561 2 13.9547 42.2341 25.4194 0.187831 -0.395799 -0.206693 0.454038
4562 2 14.3847 42.6941 29.4994 0.202921 1.01911 -0.676914 -0.246064
4563 2 22.4647 46.9741 27.3594 0.193894 -0.0946642 -0.934631 1.59326
4564 2 20.8547 43.7641 35.9294 0.181307 0.148161 0.822095 0.80343
4565 2 21.0247 41.6241 26.8994 0.171346 -0.324595 0.68788 0.56417
4566 2 15.5647 41.6141 33.2994 0.18604 -0.390217 -0.00362884 0.188221
4567 2 17.5647 42.8741 31.4894 0.200548 0.113942 0.0927588 0.568152
4568 2 16.4147 46.9141 28.7794 0.200318 -0.122319 0.404635 -0.363297
4569 2 18.6147 40.9641 28.7894 0.180499 0.0639786 0.428597 0.0335344
4570 2 23.8447 40.2541 35.8794 0.186121 0.0360069 -0.322503 0.130689
4571 2 18.4047 45.3541 29.1494 0.206263 1.14921 0.802737 -0.0191923
4572 2 19.2547 43.2341 34.7194 0.201106 2.05202 -0.296842 0.216445
4573 2 14.2747 43.9241 31.0494 0.187749 -0.772065 -0.352093 -1.05868
4574 2 22.6347 45.6941 31.7694 0.185476 -0.393872 -0.00293495 -0.0332324
4575 2 21.1847 42.0041 32.0094 0.196504 -0.74436 -0.329131 -0.441229
4576 2 17.2847 38.4141 36.2694 0.193742 0.366889 -0.114325 0.028672
4577 2 14.8247 49.0441 28.5894 0.187954 -1.23532 0.0337083 0.0339593
4578 2 14.4647 43.4341 33.8094 0.193418 0.561643 -0.413343 0.789875
4579 2 18.4947 45.8141 25.4994 0.185432 1.45645 0.9775 0.978281
4580 2 24.5647 44.3841 35.6994 0.183182 0.124893 0.275153 0.110944
4581 2 19.2547 40.7941 32.1994 0.173814 -1.21255 -0.2769 1.47209
4582 2 19.9647 39.3241 33.9894 0.171167 0.337081 -0.725404 0.216959
4583 2 13.6947 39.5941 31.0694 0.198333 -0.100625 0.233886 -1.44319
4584 2 21.7547 38.5241 31.2394 0.177467 0.392013 1.87786 -1.00919
4585 2 21.2847 40.2341 36.5794 0.189554 0.0720096 0.182704 -0.115882
4586 2 13.8347 46.7741 25.7394 0.203751 -0.146575 0.597054 0.00257446
4587 2 24.5747 40.5541 32.3894 0.198004 2.70538 -1.03043 0.0528924
4588 2 23.8247 38.2841 26.2294 0.189016 1.08991 -0.904639 -1.3561
4589 2 19.8747 39.1541 26.1294 0.192864 0.551764 -0.285848 -1.97598
4590 2 21.5947 46.7641 33.1694 0.178035 0.441242 -0.710185 2.23729
4591 2 15.4147 48.9941 31.7694 0.189438 0.458861 -0.880794 0.139718
4592 2 19.9447 47.7641 29.3594 0.181809 0.703655 1.28921 0.431934
4593 2 19.1347 46.7341 32.3594 0.206107 2.27186 -0.0386883 -0.808148
4594 2 19.7347 48.1041 35.8194 0.190335 -0.341715 -0.0504909 -0.227385
4595 2 17.8947 38.4041 30.0094 0.197986 -0.0709184 0.23663 -0.237703
4596 2 14.3647 48.9041 26.5094 0.180733 -0.408997 0.66742 -0.854418
4597 2 17.4947 47.8841 32.1494 0.212011 -0.248111 -0.14403 -0.376929
4598 2 22.1747 42.8541 25.9994 0.183029 -0.544814 -0.0113968 -0.514621
4599 2 14.1747 49.1841 34.7094 0.204137 -0.0844763 -0.535862 0.289334
4600 2 18.4647 38.9041 27.5594 0.172569 0.700362 -0.752338 -0.238782
4601 2 21.7847 44.5341 25.0994 0.198757 -0.392316 0.548762 -0.176817
4602 2 23.1547 43.8941 32.8594 0.182267 -0.323122 -1.06154 1.28721
4603 2 14.3047 44.3641 37.2594 0.189126 0.480722 -0.369012 -0.146733
4604 2 13.5247 46.4941 35.4794 0.184945 -2.28757 -0.741723 -1.18023
4605 2 22.6347 49.7241 33.0394 0.190647 0.843597 0.202302 0.0267755
4606 2 13.3647 39.8941 28.1694 0.175966 0.878426 -1.0562 2.4523
4607 2 21.7847 40.3441 29.0594 0.202541 0.483863 0.409866 -0.157738
4608 2 13.5547 47.4241 32.0994 0.213347 0.786991 0.737318 -0.312225
4609 1 11.83 2.56 39.5141 -0.418492 0.276266 0.657277 -0.200455
4610 1 5.36 6 39.1441 -0.356019 0.340918 0.424395 -0.894494
4611 1 12.17 7.34 40.0441 -0.375673 0.10866 -0.210978 -1.85847
4612 1 3.38 4.28 42.1741 -0.401225 0.92139 -0.302075 -0.574743
4613 1 4.54 11.73 49.2341 -0.352542 1.21089 0.715061 0.323242
4614 1 7.34 0.18 39.5141 -0.375672 -0.527836 1.20544 -1.95286
4615 1 5.73 9.9 47.6441 -0.42566 0.260721 0.0438552 0.366039
4616 1 5.32 11.19 39.1641 -0.352291 -0.145308 -0.360915 0.00941413
4617 1 9.39 11.14 38.4341 -0.384824 0.872305 -1.54213 -0.918645
4618 1 12.06 0.64 46.2541 -0.432941 1.38585 0.308571 -1.86896
4619 1 5.01 7.72 49.0741 -0.331212 1.05764 -0.0925345 -0.578521
4620 1 3.64 3.19 38.4141 -0.329397 0.448996 1.35171 0.0296351
4621 1 11.88 10.9 42.0341 -0.392604 0.205199 1.05594 -2.45392
4622 1 3.88 8.05 39.8441 -0.464721 -0.268927 0.355966 0.230381
4623 1 9.82 9.16 47.5141 -0.365582 0.339118 1.6696 0.487162
4624 1 11 5.31 42.5041 -0.319962 0.138438 0.0561226 1.91463
4625 1 0.97 4.12 38.1741 -0.355457 0.745143 0.775242 -0.737681
4626 1 1.24 5.99 42.0941 -0.374759 -0.193277 0.928643 -0.354903
4627 1 10.1 9.09 40.6541 -0.354105 0.910798 0.645147 -2.49239
4628 1 8.39 5.72 47.7241 -0.373468 0.806785 -0.606231 -1.83732
4629 1 8.06 4.72 38.6341 -0.36779 0.704073 -2.90774 -0.607398
4630 1 3.23 3.34 45.5941 -0.401808 2.1381 -0.397594 -0.15747
4631 1 5.02 6.21 44.6241 -0.410388 -0.430374 0.366376 -0.264798
4632 1 3.94 10.55 41.2841 -0.402417 0.433467 0.317448 -0.0584896
4633 1 6.25 4.56 41.5441 -0.380616 -0.393505 -0.784998 -0.268538
4634 1 12.18 2.35 48.4441 -0.382165 -0.847395 -0.742868 1.12305
4635 1 6.76 8.57 41.4041 -0.403469 -1.14815 -0.761855 -0.55371
4636 1 5.87 5.84 47.1241 -0.349097 -2.30362 0.637168 -0.272959
4637 1 2.18 6.91 44.3241 -0.400385 -0.46608 0.744 1.54709
4638 1 10.89 7.69 44.1141 -0.350545 0.885487 0.570873 0.0353036
4639 1 8.03 4.28 43.9041 -0.327248 0.482442 0.0231137 -0.0798046
4640 1 5.29 1.92 48.8941 -0.42046 -1.1667 0.352018 0.519718
4641 1 1.53 12.16 40.7841 -0.410573 0.411217 -0.955769 0.467821
4642 1 2.04 5.49 47.0441 -0.307415 -0.567462 1.07235 -2.10709
4643 1 6.66 9.05 38.5441 -0.337036 -1.61835 -1.07737 -0.670275
4644 1 11.75 6.18 48.3441 -0.375509 0.10922 0.0674179 -0.490561
4645 1 6.11 3.07 45.2941 -0.386894 0.529744 -0.930108 -1.62603
4646 1 8.22 1.38 46.7641 -0.395923 -0.580874 0.677685 -0.139486
4647 1 1.31 2.02 44.4241 -0.381657 1.03094 0.0207575 1.57361
4648 1 9.48 2.11 43.2541 -0.386544 -0.466533 -1.80297 1.20751
4649 1 9.33 3.34 48.3041 -0.415654 0.367202 -0.157032 0.177896
4650 1 1.31 8.49 38.1441 -0.391658 -0.324856 -1.14431 0.31241
4651 1 11.25 3.48 44.8441 -0.362951 -2.51323 0.883481 -0.600378
4652 1 11.7 0.33 37.9341 -0.377211 -1.74594 -0.0721082 1.0075
4653 1 7.63 2.04 37.6141 -0.388924 0.179805 0.446086 1.55228
4654 1 8.86 9.52 44.7341 -0.387579 -0.342408 0.41217 -1.61058
4655 1 2.01 11.54 44.2241 -0.409735 0.352761 -0.503303 0.16654
4656 1 8.02 11.27 41.9941 -0.386294 -1.67358 -0.91295 -0.155656
4657 1 5.82 9.18 45.0441 -0.32204 -1.62594 0.149828 0.939789
4658 1 8.11 11.19 48.5541 -0.344452 0.363658 1.24923 -0.54401
4659 1 5.94 0.84 43.2441 -0.430297 0.34548 0.00803161 0.132217
4660 1 1.88 11.66 37.9741 -0.447611 -0.0496527 -0.645422 0.598481
4661 1 4.66 11.28 44.0641 -0.350743 -0.301437 -0.466375 -1.15929
4662 1 10.32 6.26 38.2241 -0.326364 0.996685 -0.77712 1.0936
4663 1 2.01 11.07 47.6641 -0.382521 -0.874427 1.41956 0.876529
4664 1 5.36 2.06 40.4741 -0.366244 -1.58905 1.40305 -0.800788
4665 1 8.56 7.59 49.5041 -0.416318 -0.455295 -0.0905554 0.376108
4666 1 10.51 5.81 45.9941 -0.394249 0.641351 1.45689 0.242691
4667 1 2.37 6.23 49.4341 -0.416528 -0.176608 0.565251 1.08129
4668 1 0.3 8.77 47.3841 -0.378105 1.9013 0.678176 1.19028
4669 1 9.47 12.13 44.9041 -0.329557 -1.40439 0.150404 0.698139
4670 1 1.41 2.32 41.5041 -0.409847 -0.897507 2.03048 -1.6184
4671 1 9.69 3.69 40.8941 -0.385426 -0.31237 -0.0177726 0.00844847
4672 1 0.75 9.22 44.7241 -0.389396 -0.0507709 -1.95384 0.371119
4673 2 11.09 2.87 40.0741 0.191006 0.242658 0.249601 -0.242671
4674 2 5.51 5.51 39.9341 0.193884 0.173006 -0.778937 1.25696
4675 2 0.24 6.8 40.6241 0.202655 0.689806 -0.383521 1.08414
4676 2 4.28 4.19 41.7941 0.179041 -0.617773 0.498766 0.550814
4677 2 3.63 11.56 49.0941 0.196223 -1.92571 -0.273382 -0.129463
4678 2 6.53 12.07 39.3241 0.175621 -0.00358636 -0.0767685 0.0486973
4679 2 5.37 9.14 48.1841 0.192167 0.34454 0.250838 -0.896848
4680 2 5.74 10.31 38.9741 0.184005 0.0441917 0.251695 0.0828072
4681 2 8.71 11.07 37.7441 0.17763 0.422583 -0.0590762 -0.677176
4682 2 0.27 1.04 45.6041 0.17344 -1.12382 -0.989666 0.443687
4683 2 5.46 7.08 48.4841 0.180688 0.237302 0.266788 0.0569006
4684 2 3.84 4.17 38.3941 0.193774 -0.430973 -1.59744 0.0114867
4685 2 11.55 10.19 41.4841 0.193318 -0.344368 -0.238323 -0.197752
4686 2 3 8.17 39.4741 0.185158 0.135081 -0.0815658 -0.0868139
4687 2 9.53 10.04 47.8941 0.183594 0.0382068 -1.11775 -0.571174
4688 2 11.18 4.84 43.3841 0.169879 -0.438853 0.441072 -1.51328
4689 2 0.68 3.76 49.7741 0.177372 -0.291537 -0.537384 -0.242274
4690 2 0.43 5.51 42.2141 0.191064 -0.911687 -0.445062 0.172009
4691 2 9.51 9.48 41.2741 0.198767 -0.777808 0.453435 0.709476
4692 2 9.08 5.89 47.0141 0.183631 -0.873519 -0.131878 0.694449
4693 2 7.92 3.83 38.1341 0.157297 -0.370778 1.99011 0.390001
4694 2 4.23 3.22 45.5441 0.191194 -1.4239 0.140268 -0.00568674
4695 2 5.27 5.9 45.5241 0.186369 0.231081 -0.0760023 -0.406508
4696 2 4.44 10.9 40.4741 0.186774 -0.369927 -0.593143 0.691912
4697 2 6.93 4.56 42.2241 0.1968 0.140728 0.23838 0.137608
4698 2 11.88 1.61 49.0841 0.177225 0.613582 1.15345 -0.980064
4699 2 6.79 8.54 40.4241 0.175368 0.0995671 0.218337 0.449137
4700 2 5.62 4.99 47.4641 0.221123 0.00679913 -0.644039 0.23631
4701 2 3.09 6.66 44.3141 0.191092 1.4339 -0.115644 0.191259
4702 2 11.73 8.22 44.1941 0.191114 -0.600429 -0.543267 -0.0195805
4703 2 8.4 3.45 43.5141 0.180758 0.299557 0.121722 0.376312
4704 2 4.64 2.37 49.4941 0.183436 0.774 -0.148307 -0.517191
4705 2 0.74 11.69 41.1941 0.193332 1.24461 0.486264 -0.165089
4706 2 1.1 5.3 47.0541 0.198266 -0.394062 -0.607512 0.476842
4707 2 7.54 9.11 38.1641 0.192116 -0.0556794 -0.517778 -0.239847
4708 2 11.36 6.2 49.2341 0.192143 -0.194152 -0.056928 0.0439441
4709 2 5.85 2.21 44.8641 0.183621 0.497817 1.05772 0.321722
4710 2 8.81 2.01 47.2241 0.182684 0.0118129 -0.096902 -0.0594839
4711 2 2.17 2.43 44.7941 0.202487 -1.14917 -0.170409 -0.334949
4712 2 10.1 2.53 43.8841 0.181257 0.112947 -0.135634 -0.230604
4713 2 9.07 4.29 48.2441 0.184907 -0.265495 -0.504581 0.00100067
4714 2 0.64 8.13 38.7841 0.199679 0.509356 0.674749 -0.308523
4715 2 11.12 4.2 45.4741 0.20226 -0.183436 0.40318 0.312315
4716 2 11.03 12.03 37.9141 0.195342 0.754076 1.17492 0.0467483
4717 2 6.83 1.84 49.5241 0.187672 -0.296902 0.227221 0.205483
4718 2 9.13 10.45 44.5841 0.185571 -0.160227 0.106159 -0.443064
4719 2 1.76 12.44 44.1341 0.185592 -1.18377 1.35744 -0.0950432
4720 2 7.37 11.88 42.4141 0.175798 0.637215 -0.47432 -0.169099
4721 2 5.59 8.29 44.7741 0.218995 0.0580412 -0.600366 -0.182302
4722 2 8.14 12.12 48.1941 0.195424 -0.210885 -1.20675 0.445494
4723 2 5.48 0.06 43.6541 0.18894 0.122005 0.408538 -0.0842169
4724 2 0.99 11.99 37.7441 0.187845 0.420676 0.0199726 0.49879
4725 2 4.54 10.95 43.1241 0.18336 -0.0166793 0.130461 0.932346
4726 2 10.94 6.29 38.9841 0.201455 -0.0271959 0.593441 -0.475505
4727 2 2.52 10.55 47.0941 0.218255 1.17315 -0.879302 -1.41999
4728 2 4.74 2.41 39.7541 0.184876 0.756445 -0.550807 1.19332
4729 2 8.84 8.27 48.8941 0.185769 0.648323 0.253461 -0.371353
4730 2 10.89 6.06 46.9141 0.177024 -0.150002 -0.450778 -1.36998
4731 2 2.15 5.99 48.5141 0.183134 0.198196 0.153342 -0.208291
4732 2 0.49 9.06 46.4641 0.170817 -0.195493 -0.175732 0.133213
4733 2 8.69 12.34 45.4841 0.197811 0.866233 0.118045 -0.768209
4734 2 1.76 1.44 41.4041 0.192692 -0.221691 -1.01335 -0.531412
4735 2 10.05 4.44 41.4341 0.192316 -0.125981 -0.745356 -0.0156516
4736 2 1.44 8.49 44.6541 0.197896 -0.576753 0.967147 -0.266633
4737 2 12.25 3.32 39.0141 0.205745 -0.63771 -0.790003 0.707794
4738 2 6.27 6.22 38.8941 0.19505 -0.288687 -0.189984 -0.310418
4739 2 11.5 7.85 40.4741 0.211303 -0.832515 0.597977 0.813092
4740 2 2.96 3.44 41.9441 0.180349 -0.533169 -0.0679274 0.0315722
4741 2 5.04 11.17 48.6341 0.203952 0.127405 -0.381067 -0.58508
4742 2 7.6 12.39 40.3641 0.186688 0.821742 -0.72861 2.61773
4743 2 5.94 9.68 46.7041 0.201527 -0.66892 -0.412503 0.824085
4744 2 4.93 11.46 38.2941 0.192241 -0.183069 0.0484407 -0.0612557
4745 2 8.92 11.68 39.0241 0.182209 -0.842543 1.45771 1.60205
4746 2 12.07 1.36 46.8741 0.171109 -0.388878 0.418182 1.32797
4747 2 4.17 7.28 49.1341 0.187175 -1.26448 -0.13249 0.621876
4748 2 2.67 3.09 38.3841 0.196792 0.335562 0.328203 0.0513081
4749 2 11.89 10.59 42.8941 0.212694 0.132246 -0.756141 2.53351
4750 2 4.27 7.23 39.4941 0.187744 0.0819493 0.0437704 -0.0145212
4751 2 10.8 9.22 47.5141 0.189919 -0.381737 -0.312462 0.000712232
4752 2 10.68 6.2 42.7741 0.199547 0.402562 -0.469591 -0.089058
4753 2 1.51 4.9 37.8641 0.18783 -0.395795 -0.206692 0.454017
4754 2 1.94 5.36 41.9441 0.202922 1.01914 -0.676943 -0.246072
4755 2 10.02 9.64 39.8041 0.193894 -0.0946713 -0.93461 1.59323
4756 2 8.41 6.43 48.3741 0.181307 0.148158 0.822062 0.803408
4757 2 8.58 4.29 39.3441 0.171346 -0.324546 0.687843 0.564239
4758 2 3.12 4.28 45.7441 0.18604 -0.390225 -0.00349693 0.188239
4759 2 5.12 5.54 43.9341 0.200549 0.113958 0.0926679 0.568067
4760 2 3.97 9.58 41.2241 0.200318 -0.122321 0.404592 -0.363293
4761 2 6.17 3.63 41.2341 0.180499 0.0639805 0.428603 0.0335391
4762 2 11.4 2.92 48.3241 0.186121 0.0360012 -0.322492 0.130676
4763 2 5.96 8.02 41.5941 0.206263 1.1492 0.802728 -0.0192009
4764 2 6.81 5.9 47.1641 0.201106 2.05204 -0.296832 0.216438
4765 2 1.83 6.59 43.4941 0.187749 -0.77204 -0.352064 -1.0586
4766 2 10.19 8.36 44.2141 0.185475 -0.393807 -0.00300179 -0.0332369
4767 2 8.74 4.67 44.4541 0.196503 -0.744456 -0.329185 -0.441305
4768 2 4.84 1.08 48.7141 0.193742 0.366901 -0.114319 0.028673
4769 2 2.38 11.71 41.0341 0.187953 -1.23535 0.0337355 0.0339466
4770 2 2.02 6.1 46.2541 0.193418 0.561656 -0.413329 0.789868
4771 2 6.05 8.48 37.9441 0.185432 1.45643 0.977475 0.978273
4772 2 12.12 7.05 48.1441 0.183183 0.124905 0.275199 0.110958
4773 2 6.81 3.46 44.6441 0.173813 -1.21258 -0.276899 1.47213
4774 2 7.52 1.99 46.4341 0.171167 0.337065 -0.725388 0.216944
4775 2 1.25 2.26 43.5141 0.198334 -0.100613 0.233897 -1.44321
4776 2 9.31 1.19 43.6841 0.177467 0.392011 1.87789 -1.00921
4777 2 8.84 2.9 49.0241 0.189554 0.0720741 0.182766 -0.11599
4778 2 1.39 9.44 38.1841 0.203751 -0.14657 0.597103 0.00257582
4779 2 12.13 3.22 44.8341 0.198004 2.70529 -1.0304 0.0528912
4780 2 11.38 0.95 38.6741 0.189016 1.0899 -0.90463 -1.35608
4781 2 7.43 1.82 38.5741 0.192864 0.55175 -0.285869 -1.97592
4782 2 9.15 9.43 45.6141 0.178035 0.441241 -0.710171 2.23727
4783 2 2.97 11.66 44.2141 0.189438 0.458822 -0.880803 0.139713
4784 2 7.5 10.43 41.8041 0.181808 0.70365 1.28919 0.431923
4785 2 6.69 9.4 44.8041 0.206108 2.27188 -0.0386757 -0.808152
4786 2 7.29 10.77 48.2641 0.190335 -0.341823 -0.0505483 -0.227422
4787 2 5.45 1.07 42.4541 0.197987 -0.0710174 0.236673 -0.237862
4788 2 1.92 11.57 38.9541 0.180733 -0.409006 0.667435 -0.854574
4789 2 5.05 10.55 44.5941 0.212011 -0.24815 -0.143969 -0.376996
4790 2 9.73 5.52 38.4441 0.183029 -0.544839 -0.0114271 -0.514621
4791 2 1.73 11.85 47.1541 0.204137 -0.0844775 -0.535866 0.289345
4792 2 6.02 1.57 40.0041 0.172569 0.700427 -0.752389 -0.238839
4793 2 9.34 7.2 37.5441 0.198756 -0.392342 0.548781 -0.176846
4794 2 10.71 6.56 45.3041 0.182266 -0.323122 -1.06153 1.28722
4795 2 1.86 7.03 49.7041 0.189127 0.48067 -0.368928 -0.146714
4796 2 1.08 9.16 47.9241 0.184944 -2.28754 -0.741706 -1.18019
4797 2 10.19 12.39 45.4841 0.190645 0.843562 0.202279 0.0267251
4798 2 0.92 2.56 40.6141 0.175967 0.878404 -1.05618 2.45225
4799 2 9.34 3.01 41.5041 0.202541 0.483853 0.409849 -0.157721
4800 2 1.11 10.09 44.5441 0.213347 0.786989 0.737306 -0.312226
4801 1 24.2747 2.56 39.5141 -0.418491 0.276267 0.657275 -0.200454
4802 1 17.8047 6 39.1441 -0.356018 0.340914 0.4244 -0.894496
4803 1 24.6147 7.34 40.0441 -0.375673 0.108661 -0.210981 -1.85847
4804 1 15.8247 4.28 42.1741 -0.401226 0.92141 -0.302074 -0.57475
4805 1 16.9847 11.73 49.2341 -0.352542 1.21089 0.71506 0.323241
4806 1 19.7847 0.18 39.5141 -0.375672 -0.527827 1.20545 -1.95285
4807 1 18.1747 9.9 47.6441 -0.425659 0.260725 0.0438537 0.366032
4808 1 17.7647 11.19 39.1641 -0.35229 -0.145294 -0.360925 0.00942528
4809 1 21.8347 11.14 38.4341 -0.384824 0.872321 -1.54214 -0.91866
4810 1 24.5047 0.64 46.2541 -0.432941 1.38586 0.308581 -1.86898
4811 1 17.4547 7.72 49.0741 -0.33121 1.05763 -0.0925244 -0.578511
4812 1 16.0847 3.19 38.4141 -0.329397 0.449033 1.35172 0.0296372
4813 1 24.3247 10.9 42.0341 -0.392604 0.205199 1.05595 -2.45392
4814 1 16.3247 8.05 39.8441 -0.464721 -0.268874 0.355942 0.230393
4815 1 22.2647 9.16 47.5141 -0.365582 0.339082 1.66959 0.487162
4816 1 23.4447 5.31 42.5041 -0.319963 0.138437 0.0561236 1.91464
4817 1 13.4147 4.12 38.1741 -0.355457 0.745154 0.775258 -0.737688
4818 1 13.6847 5.99 42.0941 -0.374759 -0.193303 0.928637 -0.354901
4819 1 22.5447 9.09 40.6541 -0.354106 0.910797 0.645149 -2.4924
4820 1 20.8347 5.72 47.7241 -0.373467 0.806806 -0.606225 -1.83734
4821 1 20.5047 4.72 38.6341 -0.36779 0.70409 -2.90774 -0.60738
4822 1 15.6747 3.34 45.5941 -0.401808 2.1381 -0.3976 -0.157471
4823 1 17.4647 6.21 44.6241 -0.410388 -0.430375 0.366382 -0.264796
4824 1 16.3847 10.55 41.2841 -0.402417 0.433464 0.317452 -0.0584843
4825 1 18.6947 4.56 41.5441 -0.380616 -0.393493 -0.784998 -0.268527
4826 1 24.6247 2.35 48.4441 -0.382165 -0.847404 -0.742874 1.12306
4827 1 19.2047 8.57 41.4041 -0.40347 -1.14818 -0.761875 -0.553704
4828 1 18.3147 5.84 47.1241 -0.349097 -2.30359 0.637171 -0.27296
4829 1 14.6247 6.91 44.3241 -0.400384 -0.46603 0.74399 1.5471
4830 1 23.3347 7.69 44.1141 -0.350546 0.885557 0.570852 0.0353022
4831 1 20.4747 4.28 43.9041 -0.327248 0.482406 0.0231179 -0.0798178
4832 1 17.7347 1.92 48.8941 -0.42046 -1.16668 0.35203 0.519713
4833 1 13.9747 12.16 40.7841 -0.410572 0.411222 -0.955771 0.467824
4834 1 14.4847 5.49 47.0441 -0.307415 -0.567493 1.07234 -2.10709
4835 1 19.1047 9.05 38.5441 -0.337036 -1.6184 -1.07738 -0.670263
4836 1 24.1947 6.18 48.3441 -0.375508 0.109217 0.0674011 -0.49057
4837 1 18.5547 3.07 45.2941 -0.386894 0.529733 -0.93011 -1.62602
4838 1 20.6647 1.38 46.7641 -0.395923 -0.580841 0.677666 -0.13947
4839 1 13.7547 2.02 44.4241 -0.381656 1.03096 0.0207609 1.57362
4840 1 21.9247 2.11 43.2541 -0.386543 -0.466537 -1.80297 1.20751
4841 1 21.7747 3.34 48.3041 -0.415653 0.367203 -0.15703 0.177895
4842 1 13.7547 8.49 38.1441 -0.391658 -0.324858 -1.14431 0.312409
4843 1 23.6947 3.48 44.8441 -0.362951 -2.51329 0.883502 -0.600375
4844 1 24.1447 0.33 37.9341 -0.377211 -1.7459 -0.0720731 1.00751
4845 1 20.0747 2.04 37.6141 -0.388925 0.179838 0.446098 1.55229
4846 1 21.3047 9.52 44.7341 -0.38758 -0.342424 0.412154 -1.61059
4847 1 14.4547 11.54 44.2241 -0.409735 0.352724 -0.503305 0.16654
4848 1 20.4647 11.27 41.9941 -0.386294 -1.67361 -0.912933 -0.155643
4849 1 18.2647 9.18 45.0441 -0.322041 -1.62588 0.149844 0.939775
4850 1 20.5547 11.19 48.5541 -0.344451 0.363581 1.2492 -0.54404
4851 1 18.3847 0.84 43.2441 -0.430297 0.345448 0.00802524 0.132193
4852 1 14.3247 11.66 37.9741 -0.447611 -0.0496646 -0.645419 0.598476
4853 1 17.1047 11.28 44.0641 -0.350743 -0.301448 -0.466363 -1.1593
4854 1 22.7647 6.26 38.2241 -0.326364 0.996697 -0.777116 1.09362
4855 1 14.4547 11.07 47.6641 -0.382521 -0.874441 1.41958 0.876541
4856 1 17.8047 2.06 40.4741 -0.366244 -1.58905 1.40305 -0.80079
4857 1 21.0047 7.59 49.5041 -0.416318 -0.45526 -0.0905557 0.37611
4858 1 22.9547 5.81 45.9941 -0.394249 0.641338 1.45688 0.242691
4859 1 14.8147 6.23 49.4341 -0.416528 -0.176613 0.565257 1.08128
4860 1 12.7447 8.77 47.3841 -0.378106 1.90129 0.678173 1.19027
4861 1 21.9147 12.13 44.9041 -0.329557 -1.40429 0.150414 0.698151
4862 1 13.8547 2.32 41.5041 -0.409847 -0.897504 2.03047 -1.6184
4863 1 22.1347 3.69 40.8941 -0.385426 -0.31239 -0.0178012 0.00844707
4864 1 13.1947 9.22 44.7241 -0.389396 -0.050784 -1.95384 0.371121
4865 2 23.5347 2.87 40.0741 0.191007 0.242659 0.249601 -0.242671
4866 2 17.9547 5.51 39.9341 0.193884 0.173008 -0.778938 1.25697
4867 2 12.6847 6.8 40.6241 0.202656 0.689808 -0.383524 1.08414
4868 2 16.7247 4.19 41.7941 0.179041 -0.617795 0.498766 0.550822
4869 2 16.0747 11.56 49.0941 0.196223 -1.92571 -0.273382 -0.129463
4870 2 18.9747 12.07 39.3241 0.175621 -0.0035973 -0.0767745 0.0486964
4871 2 17.8147 9.14 48.1841 0.192167 0.344544 0.250839 -0.89685
4872 2 18.1847 10.31 38.9741 0.184005 0.0441887 0.251699 0.0828086
4873 2 21.1547 11.07 37.7441 0.17763 0.422582 -0.0590741 -0.677175
4874 2 12.7147 1.04 45.6041 0.17344 -1.12381 -0.989656 0.443674
4875 2 17.9047 7.08 48.4841 0.180687 0.237316 0.266778 0.0568896
4876 2 16.2847 4.17 38.3941 0.193773 -0.430979 -1.59744 0.0114869
4877 2 23.9947 10.19 41.4841 0.193318 -0.344367 -0.238324 -0.197751
4878 2 15.4447 8.17 39.4741 0.185159 0.135043 -0.0815632 -0.086832
4879 2 21.9747 10.04 47.8941 0.183595 0.0381977 -1.11774 -0.571171
4880 2 23.6247 4.84 43.3841 0.169879 -0.438852 0.441073 -1.51328
4881 2 13.1247 3.76 49.7741 0.177372 -0.291537 -0.537383 -0.242276
4882 2 12.8747 5.51 42.2141 0.191064 -0.911668 -0.445051 0.172006
4883 2 21.9547 9.48 41.2741 0.198767 -0.777807 0.453434 0.709476
4884 2 21.5247 5.89 47.0141 0.183631 -0.873538 -0.131884 0.694463
4885 2 20.3647 3.83 38.1341 0.157297 -0.370782 1.99011 0.389998
4886 2 16.6747 3.22 45.5441 0.191194 -1.4239 0.140265 -0.00568692
4887 2 17.7147 5.9 45.5241 0.186369 0.231079 -0.0760039 -0.406506
4888 2 16.8847 10.9 40.4741 0.186774 -0.369927 -0.593145 0.69191
4889 2 19.3747 4.56 42.2241 0.196801 0.140717 0.23838 0.137598
4890 2 24.3247 1.61 49.0841 0.177225 0.61359 1.15346 -0.980069
4891 2 19.2347 8.54 40.4241 0.175367 0.0995717 0.218339 0.449135
4892 2 18.0647 4.99 47.4641 0.221123 0.00679909 -0.64404 0.23631
4893 2 15.5347 6.66 44.3141 0.191091 1.43386 -0.115631 0.19126
4894 2 24.1747 8.22 44.1941 0.191114 -0.60045 -0.543284 -0.0195829
4895 2 20.8447 3.45 43.5141 0.180759 0.299568 0.12171 0.376309
4896 2 17.0847 2.37 49.4941 0.183436 0.77399 -0.148305 -0.517185
4897 2 13.1847 11.69 41.1941 0.193332 1.24462 0.486264 -0.165089
4898 2 13.5447 5.3 47.0541 0.198266 -0.394033 -0.607507 0.476842
4899 2 19.9847 9.11 38.1641 0.192116 -0.055639 -0.517776 -0.239866
4900 2 23.8047 6.2 49.2341 0.192143 -0.194161 -0.0569299 0.0439598
4901 2 18.2947 2.21 44.8641 0.183621 0.497816 1.05772 0.321721
4902 2 21.2547 2.01 47.2241 0.182684 0.0118153 -0.0969056 -0.0594827
4903 2 14.6147 2.43 44.7941 0.202488 -1.14918 -0.170413 -0.334951
4904 2 22.5447 2.53 43.8841 0.181258 0.112947 -0.135637 -0.230604
4905 2 21.5147 4.29 48.2441 0.184907 -0.265496 -0.504584 0.00100194
4906 2 13.0847 8.13 38.7841 0.199679 0.509357 0.674749 -0.308524
4907 2 23.5647 4.2 45.4741 0.20226 -0.18343 0.403174 0.31231
4908 2 23.4747 12.03 37.9141 0.195342 0.754041 1.17489 0.0467479
4909 2 19.2747 1.84 49.5241 0.187672 -0.296927 0.227214 0.205472
4910 2 21.5747 10.45 44.5841 0.185572 -0.160219 0.106176 -0.443065
4911 2 14.2047 12.44 44.1341 0.185592 -1.18377 1.35744 -0.0950433
4912 2 19.8147 11.88 42.4141 0.175797 0.637234 -0.474334 -0.16911
4913 2 18.0347 8.29 44.7741 0.218995 0.0580387 -0.600372 -0.182303
4914 2 20.5847 12.12 48.1941 0.195424 -0.210876 -1.20674 0.445495
4915 2 17.9247 0.06 43.6541 0.18894 0.122017 0.408549 -0.0842195
4916 2 13.4347 11.99 37.7441 0.187844 0.420686 0.0199689 0.498794
4917 2 16.9847 10.95 43.1241 0.18336 -0.0166755 0.130461 0.932347
4918 2 23.3847 6.29 38.9841 0.201455 -0.0272131 0.59344 -0.475521
4919 2 14.9647 10.55 47.0941 0.218255 1.17317 -0.879315 -1.42
4920 2 17.1847 2.41 39.7541 0.184876 0.756452 -0.55081 1.19332
4921 2 21.2847 8.27 48.8941 0.185769 0.648315 0.253452 -0.371345
4922 2 23.3347 6.06 46.9141 0.177024 -0.149993 -0.450775 -1.36997
4923 2 14.5947 5.99 48.5141 0.183134 0.198199 0.153341 -0.208287
4924 2 12.9347 9.06 46.4641 0.170817 -0.195492 -0.175731 0.133214
4925 2 21.1347 12.34 45.4841 0.197811 0.866185 0.118056 -0.768176
4926 2 14.2047 1.44 41.4041 0.192692 -0.221693 -1.01334 -0.531412
4927 2 22.4947 4.44 41.4341 0.192316 -0.125969 -0.745338 -0.0156412
4928 2 13.8847 8.49 44.6541 0.197897 -0.576743 0.967138 -0.266635
4929 2 24.6947 3.32 39.0141 0.205745 -0.637711 -0.790003 0.707793
4930 2 18.7147 6.22 38.8941 0.19505 -0.288688 -0.189986 -0.310416
4931 2 23.9447 7.85 40.4741 0.211303 -0.832514 0.597976 0.813092
4932 2 15.4047 3.44 41.9441 0.180348 -0.533167 -0.0679275 0.0315716
4933 2 17.4847 11.17 48.6341 0.203952 0.127404 -0.381066 -0.58508
4934 2 20.0447 12.39 40.3641 0.186688 0.82174 -0.728609 2.61772
4935 2 18.3847 9.68 46.7041 0.201527 -0.668925 -0.412502 0.824095
4936 2 17.3747 11.46 38.2941 0.19224 -0.183079 0.048445 -0.0612686
4937 2 21.3647 11.68 39.0241 0.18221 -0.842556 1.45772 1.60207
4938 2 24.5147 1.36 46.8741 0.171109 -0.38888 0.418181 1.32797
4939 2 16.6147 7.28 49.1341 0.187175 -1.26448 -0.132488 0.621879
4940 2 15.1147 3.09 38.3841 0.196793 0.335531 0.328202 0.0513076
4941 2 24.3347 10.59 42.8941 0.212694 0.132246 -0.756142 2.53351
4942 2 16.7147 7.23 39.4941 0.187744 0.0819378 0.043788 -0.0145153
4943 2 23.2447 9.22 47.5141 0.189919 -0.381692 -0.312464 0.000710284
4944 2 23.1247 6.2 42.7741 0.199547 0.402562 -0.469591 -0.0890587
4945 2 13.9547 4.9 37.8641 0.187831 -0.395807 -0.206708 0.454022
4946 2 14.3847 5.36 41.9441 0.202921 1.01914 -0.676948 -0.246073
4947 2 22.4647 9.64 39.8041 0.193894 -0.0946712 -0.934611 1.59323
4948 2 20.8547 6.43 48.3741 0.181307 0.148154 0.822062 0.80341
4949 2 21.0247 4.29 39.3441 0.171346 -0.324557 0.687852 0.564224
4950 2 15.5647 4.28 45.7441 0.18604 -0.390228 -0.00349002 0.18824
4951 2 17.5647 5.54 43.9341 0.200549 0.11396 0.0926638 0.568064
4952 2 16.4147 9.58 41.2241 0.200318 -0.122319 0.404591 -0.363295
4953 2 18.6147 3.63 41.2341 0.1805 0.0639801 0.428601 0.0335382
4954 2 23.8447 2.92 48.3241 0.186121 0.0360024 -0.32249 0.130673
4955 2 18.4047 8.02 41.5941 0.206263 1.14922 0.802746 -0.0192046
4956 2 19.2547 5.9 47.1641 0.201106 2.05202 -0.296834 0.216438
4957 2 14.2747 6.59 43.4941 0.187749 -0.772042 -0.352067 -1.0586
4958 2 22.6347 8.36 44.2141 0.185476 -0.393852 -0.00296569 -0.0332325
4959 2 21.1847 4.67 44.4541 0.196504 -0.744429 -0.329176 -0.441289
4960 2 17.2847 1.08 48.7141 0.193742 0.366888 -0.114333 0.028671
4961 2 14.8247 11.71 41.0341 0.187953 -1.23535 0.033738 0.0339446
4962 2 14.4647 6.1 46.2541 0.193418 0.561657 -0.413327 0.789866
4963 2 18.4947 8.48 37.9441 0.185432 1.45644 0.977483 0.978279
4964 2 24.5647 7.05 48.1441 0.183183 0.124916 0.275217 0.110951
4965 2 19.2547 3.46 44.6441 0.173813 -1.21256 -0.276896 1.47213
4966 2 19.9647 1.99 46.4341 0.171167 0.337031 -0.725365 0.216928
4967 2 13.6947 2.26 43.5141 0.198334 -0.100613 0.233897 -1.44322
4968 2 21.7547 1.19 43.6841 0.177467 0.392015 1.87789 -1.00921
4969 2 21.2847 2.9 49.0241 0.189554 0.072073 0.182766 -0.11599
4970 2 13.8347 9.44 38.1841 0.203751 -0.146569 0.597104 0.00257612
4971 2 24.5747 3.22 44.8341 0.198004 2.70534 -1.03042 0.0528937
4972 2 23.8247 0.95 38.6741 0.189016 1.0899 -0.904632 -1.35608
4973 2 19.8747 1.82 38.5741 0.192865 0.55174 -0.285874 -1.97591
4974 2 21.5947 9.43 45.6141 0.178035 0.441246 -0.71017 2.23728
4975 2 15.4147 11.66 44.2141 0.189438 0.458861 -0.8808 0.139714
4976 2 19.9447 10.43 41.8041 0.181808 0.703652 1.28919 0.431922
4977 2 19.1347 9.4 44.8041 0.206108 2.27182 -0.038687 -0.808138
4978 2 19.7347 10.77 48.2641 0.190335 -0.341758 -0.0505227 -0.227397
4979 2 17.8947 1.07 42.4541 0.197987 -0.0709956 0.236667 -0.237834
4980 2 14.3647 11.57 38.9541 0.180732 -0.409007 0.667436 -0.854573
4981 2 17.4947 10.55 44.5941 0.212012 -0.248142 -0.14398 -0.376989
4982 2 22.1747 5.52 38.4441 0.183029 -0.544836 -0.0114262 -0.514619
4983 2 14.1747 11.85 47.1541 0.204137 -0.0844745 -0.535872 0.289349
4984 2 18.4647 1.57 40.0041 0.172569 0.700428 -0.75239 -0.23884
4985 2 21.7847 7.2 37.5441 0.198757 -0.392365 0.548786 -0.176855
4986 2 23.1547 6.56 45.3041 0.182266 -0.323117 -1.06152 1.28721
4987 2 14.3047 7.03 49.7041 0.189127 0.480674 -0.368935 -0.146714
4988 2 13.5247 9.16 47.9241 0.184944 -2.28753 -0.741703 -1.18018
4989 2 22.6347 12.39 45.4841 0.190645 0.84351 0.20226 0.026682
4990 2 13.3647 2.56 40.6141 0.175967 0.878404 -1.05618 2.45225
4991 2 21.7847 3.01 41.5041 0.20254 0.48386 0.409859 -0.157732
4992 2 13.5547 10.09 44.5441 0.213347 0.786993 0.737311 -0.312228
4993 1 11.83 15.0047 39.5141 -0.418491 0.276259 0.657284 -0.200448
4994 1 5.36 18.4447 39.1441 -0.356018 0.340917 0.424391 -0.894492
4995 1 12.17 19.7847 40.0441 -0.375673 0.108668 -0.210989 -1.85845
4996 1 3.38 16.7247 42.1741 -0.401226 0.921374 -0.30211 -0.574752
4997 1 4.54 24.1747 49.2341 -0.352542 1.21087 0.715056 0.323239
4998 1 7.34 12.6247 39.5141 -0.375672 -0.527826 1.20547 -1.95291
4999 1 5.73 22.3447 47.6441 -0.42566 0.260711 0.0438284 0.366056
5000 1 5.32 23.6347 39.1641 -0.35229 -0.145274 -0.360985 0.00942057
5001 1 9.39 23.5847 38.4341 -0.384824 0.872289 -1.5421 -0.918621
5002 1 12.06 13.0847 46.2541 -0.432941 1.38585 0.308583 -1.86896
5003 1 5.01 20.1647 49.0741 -0.331212 1.05766 -0.0925147 -0.578514
5004 1 3.64 15.6347 38.4141 -0.329397 0.449004 1.35174 0.0296361
5005 1 11.88 23.3447 42.0341 -0.392605 0.20521 1.05597 -2.4539
5006 1 3.88 20.4947 39.8441 -0.464721 -0.268939 0.355985 0.230388
5007 1 9.82 21.6047 47.5141 -0.365582 0.339118 1.66956 0.487151
5008 1 11 17.7547 42.5041 -0.319962 0.138442 0.0561108 1.91463
5009 1 0.97 16.5647 38.1741 -0.355457 0.745158 0.775266 -0.737669
5010 1 1.24 18.4347 42.0941 -0.374759 -0.19329 0.928653 -0.354902
5011 1 10.1 21.5347 40.6541 -0.354106 0.910799 0.645135 -2.49238
5012 1 8.39 18.1647 47.7241 -0.373466 0.806783 -0.606207 -1.8373
5013 1 8.06 17.1647 38.6341 -0.36779 0.704078 -2.90773 -0.607386
5014 1 3.23 15.7847 45.5941 -0.401808 2.1381 -0.397587 -0.157469
5015 1 5.02 18.6547 44.6241 -0.410388 -0.430374 0.366378 -0.264801
5016 1 3.94 22.9947 41.2841 -0.402417 0.43347 0.317494 -0.0584993
5017 1 6.25 17.0047 41.5441 -0.380616 -0.393506 -0.785018 -0.268543
5018 1 12.18 14.7947 48.4441 -0.382165 -0.847406 -0.742859 1.12304
5019 1 6.76 21.0147 41.4041 -0.40347 -1.14815 -0.76186 -0.553714
5020 1 5.87 18.2847 47.1241 -0.349097 -2.30362 0.637166 -0.27296
5021 1 2.18 19.3547 44.3241 -0.400385 -0.466077 0.743996 1.54709
5022 1 10.89 20.1347 44.1141 -0.350545 0.885451 0.570859 0.0353031
5023 1 8.03 16.7247 43.9041 -0.327247 0.482443 0.023088 -0.0798167
5024 1 5.29 14.3647 48.8941 -0.42046 -1.16671 0.352003 0.519714
5025 1 1.53 24.6047 40.7841 -0.410572 0.411242 -0.955769 0.467818
5026 1 2.04 17.9347 47.0441 -0.307415 -0.567467 1.07235 -2.1071
5027 1 6.66 21.4947 38.5441 -0.337036 -1.61834 -1.07735 -0.67026
5028 1 11.75 18.6247 48.3441 -0.375509 0.109194 0.0673511 -0.490553
5029 1 6.11 15.5147 45.2941 -0.386894 0.529749 -0.930098 -1.62603
5030 1 8.22 13.8247 46.7641 -0.395923 -0.580866 0.67768 -0.139482
5031 1 1.31 14.4647 44.4241 -0.381656 1.03094 0.0207569 1.5736
5032 1 9.48 14.5547 43.2541 -0.386544 -0.466537 -1.80298 1.20751
5033 1 9.33 15.7847 48.3041 -0.415654 0.367209 -0.157087 0.177907
5034 1 1.31 20.9347 38.1441 -0.391659 -0.324859 -1.14427 0.312416
5035 1 11.25 15.9247 44.8441 -0.362951 -2.51322 0.883469 -0.600384
5036 1 11.7 12.7747 37.9341 -0.377211 -1.74598 -0.0721589 1.0075
5037 1 7.63 14.4847 37.6141 -0.388924 0.179805 0.446084 1.55228
5038 1 8.86 21.9647 44.7341 -0.387579 -0.342417 0.41213 -1.61058
5039 1 2.01 23.9847 44.2241 -0.409735 0.35273 -0.503195 0.166529
5040 1 8.02 23.7147 41.9941 -0.386294 -1.67357 -0.912968 -0.155666
5041 1 5.82 21.6247 45.0441 -0.322041 -1.62595 0.149784 0.939773
5042 1 8.11 23.6347 48.5541 -0.344452 0.363639 1.24915 -0.543992
5043 1 5.94 13.2847 43.2441 -0.430297 0.345471 0.00801151 0.132233
5044 1 1.88 24.1047 37.9741 -0.447611 -0.0496535 -0.645424 0.59848
5045 1 4.66 23.7247 44.0641 -0.350743 -0.301415 -0.466444 -1.15928
5046 1 10.32 18.7047 38.2241 -0.326363 0.996692 -0.777114 1.0936
5047 1 2.01 23.5147 47.6641 -0.382521 -0.874406 1.41954 0.876508
5048 1 5.36 14.5047 40.4741 -0.366244 -1.58905 1.40305 -0.800786
5049 1 8.56 20.0347 49.5041 -0.416318 -0.455291 -0.0905688 0.376112
5050 1 10.51 18.2547 45.9941 -0.394249 0.64135 1.45689 0.24269
5051 1 2.37 18.6747 49.4341 -0.416528 -0.176622 0.56528 1.08131
5052 1 0.3 21.2147 47.3841 -0.378105 1.9013 0.678171 1.19028
5053 1 9.47 24.5747 44.9041 -0.329557 -1.40439 0.15041 0.698146
5054 1 1.41 14.7647 41.5041 -0.409847 -0.897502 2.03047 -1.6184
5055 1 9.69 16.1347 40.8941 -0.385426 -0.312375 -0.0177809 0.00845248
5056 1 0.75 21.6647 44.7241 -0.389396 -0.0507712 -1.95379 0.371112
5057 2 11.09 15.3147 40.0741 0.191006 0.242665 0.249596 -0.242676
5058 2 5.51 17.9547 39.9341 0.193884 0.173004 -0.778937 1.25697
5059 2 0.24 19.2447 40.6241 0.202656 0.689789 -0.383502 1.08413
5060 2 4.28 16.6347 41.7941 0.179041 -0.617773 0.498766 0.550813
5061 2 3.63 24.0047 49.0941 0.196223 -1.9257 -0.273379 -0.129461
5062 2 6.53 24.5147 39.3241 0.175621 -0.00357691 -0.0767567 0.0486949
5063 2 5.37 21.5847 48.1841 0.192166 0.344551 0.250865 -0.896864
5064 2 5.74 22.7547 38.9741 0.184005 0.0441711 0.251747 0.0828213
5065 2 8.71 23.5147 37.7441 0.17763 0.422581 -0.0590767 -0.67718
5066 2 0.27 13.4847 45.6041 0.17344 -1.12383 -0.98967 0.44369
5067 2 5.46 19.5247 48.4841 0.180688 0.237305 0.26678 0.0568951
5068 2 3.84 16.6147 38.3941 0.193773 -0.430974 -1.59746 0.0114868
5069 2 11.55 22.6347 41.4841 0.193318 -0.344378 -0.238348 -0.19777
5070 2 3 20.6147 39.4741 0.185159 0.135089 -0.0815691 -0.0868125
5071 2 9.53 22.4847 47.8941 0.183594 0.0382044 -1.11772 -0.571165
5072 2 11.18 17.2847 43.3841 0.169879 -0.43885 0.441066 -1.51327
5073 2 0.68 16.2047 49.7741 0.177371 -0.291545 -0.537395 -0.242293
5074 2 0.43 17.9547 42.2141 0.191064 -0.911685 -0.445063 0.172009
5075 2 9.51 21.9247 41.2741 0.198767 -0.777808 0.453436 0.709475
5076 2 9.08 18.3347 47.0141 0.18363 -0.873519 -0.131877 0.694449
5077 2 7.92 16.2747 38.1341 0.157297 -0.370781 1.9901 0.389993
5078 2 4.23 15.6647 45.5441 0.191194 -1.42391 0.140275 -0.00568569
5079 2 5.27 18.3447 45.5241 0.18637 0.231082 -0.0760042 -0.406506
5080 2 4.44 23.3447 40.4741 0.186774 -0.369932 -0.593149 0.691921
5081 2 6.93 17.0047 42.2241 0.196801 0.140728 0.238381 0.137607
5082 2 11.88 14.0547 49.0841 0.177225 0.613581 1.15345 -0.980065
5083 2 6.79 20.9847 40.4241 0.175368 0.0995695 0.21834 0.44914
5084 2 5.62 17.4347 47.4641 0.221124 0.0067973 -0.644039 0.23631
5085 2 3.09 19.1047 44.3141 0.191092 1.4339 -0.115643 0.191258
5086 2 11.73 20.6647 44.1941 0.191114 -0.600408 -0.543248 -0.0195782
5087 2 8.4 15.8947 43.5141 0.180758 0.29955 0.121739 0.376319
5088 2 4.64 14.8147 49.4941 0.183436 0.773996 -0.148304 -0.517187
5089 2 0.74 24.1347 41.1941 0.193332 1.24461 0.486255 -0.165084
5090 2 1.1 17.7447 47.0541 0.198266 -0.394051 -0.607507 0.476839
5091 2 7.54 21.5547 38.1641 0.192116 -0.0556868 -0.51778 -0.239848
5092 2 11.36 18.6447 49.2341 0.192143 -0.19415 -0.0569202 0.0439431
5093 2 5.85 14.6547 44.8641 0.183621 0.497815 1.05771 0.321717
5094 2 8.81 14.4547 47.2241 0.182684 0.0118111 -0.0969034 -0.0594859
5095 2 2.17 14.8747 44.7941 0.202487 -1.14916 -0.170406 -0.334947
5096 2 10.1 14.9747 43.8841 0.181258 0.112948 -0.135635 -0.230604
5097 2 9.07 16.7347 48.2441 0.184907 -0.265507 -0.504535 0.000999467
5098 2 0.64 20.5747 38.7841 0.199679 0.509364 0.674759 -0.308529
5099 2 11.12 16.6447 45.4741 0.20226 -0.183437 0.40319 0.312323
5100 2 11.03 24.4747 37.9141 0.195342 0.75406 1.17489 0.0467437
5101 2 6.83 14.2847 49.5241 0.187672 -0.296904 0.227221 0.205481
5102 2 9.13 22.8947 44.5841 0.185572 -0.160218 0.106197 -0.443071
5103 2 1.76 24.8847 44.1341 0.185591 -1.18374 1.35734 -0.0950325
5104 2 7.37 24.3247 42.4141 0.175797 0.637202 -0.474301 -0.169089
5105 2 5.59 20.7347 44.7741 0.218995 0.0580523 -0.60032 -0.182289
5106 2 8.14 24.5647 48.1941 0.195424 -0.210884 -1.20668 0.44547
5107 2 5.48 12.5047 43.6541 0.18894 0.122016 0.408556 -0.0842256
5108 2 0.99 24.4347 37.7441 0.187844 0.420676 0.0199723 0.498791
5109 2 4.54 23.3947 43.1241 0.183359 -0.0166789 0.13048 0.932364
5110 2 10.94 18.7347 38.9841 0.201455 -0.0271915 0.593447 -0.475502
5111 2 2.52 22.9947 47.0941 0.218255 1.17313 -0.879277 -1.41996
5112 2 4.74 14.8547 39.7541 0.184876 0.756447 -0.550808 1.19332
5113 2 8.84 20.7147 48.8941 0.185769 0.648327 0.253463 -0.371354
5114 2 10.89 18.5047 46.9141 0.177024 -0.15 -0.450777 -1.36998
5115 2 2.15 18.4347 48.5141 0.183133 0.198194 0.153338 -0.2083
5116 2 0.49 21.5047 46.4641 0.170818 -0.195491 -0.175727 0.133206
5117 2 8.69 24.7847 45.4841 0.197811 0.866239 0.118041 -0.768214
5118 2 1.76 13.8847 41.4041 0.192692 -0.221695 -1.01334 -0.53141
5119 2 10.05 16.8847 41.4341 0.192316 -0.125981 -0.745357 -0.015651
5120 2 1.44 20.9347 44.6541 0.197896 -0.576738 0.967131 -0.266635
5121 2 12.25 15.7647 39.0141 0.205745 -0.637709 -0.790006 0.707793
5122 2 6.27 18.6647 38.8941 0.195051 -0.288683 -0.189981 -0.310421
5123 2 11.5 20.2947 40.4741 0.211303 -0.832505 0.597969 0.813088
5124 2 2.96 15.8847 41.9441 0.180348 -0.533153 -0.067893 0.0315806
5125 2 5.04 23.6147 48.6341 0.203952 0.127407 -0.381066 -0.585081
5126 2 7.6 24.8347 40.3641 0.186687 0.821736 -0.728603 2.6177
5127 2 5.94 22.1247 46.7041 0.201526 -0.66892 -0.412502 0.824085
5128 2 4.93 23.9047 38.2941 0.192241 -0.183077 0.0484538 -0.061271
5129 2 8.92 24.1247 39.0241 0.182209 -0.842527 1.45769 1.60203
5130 2 12.07 13.8047 46.8741 0.171108 -0.388879 0.418176 1.32797
5131 2 4.17 19.7247 49.1341 0.187175 -1.2645 -0.132503 0.621875
5132 2 2.67 15.5347 38.3841 0.196792 0.335555 0.328199 0.0513077
5133 2 11.89 23.0347 42.8941 0.212694 0.132245 -0.756142 2.53351
5134 2 4.27 19.6747 39.4941 0.187744 0.0819536 0.0437555 -0.0145302
5135 2 10.8 21.6647 47.5141 0.189919 -0.381734 -0.312456 0.000713871
5136 2 10.68 18.6447 42.7741 0.199547 0.402555 -0.469569 -0.0890555
5137 2 1.51 17.3447 37.8641 0.187831 -0.395801 -0.206702 0.454024
5138 2 1.94 17.8047 41.9441 0.202922 1.01915 -0.676954 -0.246074
5139 2 10.02 22.0847 39.8041 0.193895 -0.094673 -0.9346 1.59322
5140 2 8.41 18.8747 48.3741 0.181307 0.148157 0.82204 0.803388
5141 2 8.58 16.7347 39.3441 0.171346 -0.324548 0.687848 0.564234
5142 2 3.12 16.7247 45.7441 0.18604 -0.39022 -0.00351118 0.188237
5143 2 5.12 17.9847 43.9341 0.200549 0.113958 0.0926686 0.568068
5144 2 3.97 22.0247 41.2241 0.200319 -0.122319 0.404554 -0.363295
5145 2 6.17 16.0747 41.2341 0.180499 0.0639804 0.428621 0.033544
5146 2 11.4 15.3647 48.3241 0.18612 0.0360125 -0.322501 0.130678
5147 2 5.96 20.4647 41.5941 0.206263 1.14919 0.802729 -0.0191988
5148 2 6.81 18.3447 47.1641 0.201106 2.05205 -0.29683 0.216438
5149 2 1.83 19.0347 43.4941 0.187749 -0.772039 -0.352063 -1.0586
5150 2 10.19 20.8047 44.2141 0.185475 -0.393795 -0.00301067 -0.0332373
5151 2 8.74 17.1147 44.4541 0.196503 -0.744449 -0.32918 -0.441299
5152 2 4.84 13.5247 48.7141 0.193742 0.366905 -0.114308 0.0286745
5153 2 2.38 24.1547 41.0341 0.187953 -1.23536 0.0337444 0.0339437
5154 2 2.02 18.5447 46.2541 0.193418 0.56165 -0.413336 0.789877
5155 2 6.05 20.9247 37.9441 0.185432 1.45642 0.977464 0.978261
5156 2 12.12 19.4947 48.1441 0.183183 0.124927 0.275258 0.110951
5157 2 6.81 15.9047 44.6441 0.173813 -1.21258 -0.276901 1.47213
5158 2 7.52 14.4347 46.4341 0.171167 0.33706 -0.725382 0.216942
5159 2 1.25 14.7047 43.5141 0.198334 -0.100612 0.233894 -1.44321
5160 2 9.31 13.6347 43.6841 0.177466 0.392012 1.8779 -1.00921
5161 2 8.84 15.3447 49.0241 0.189554 0.0720798 0.182773 -0.115998
5162 2 1.39 21.8847 38.1841 0.203751 -0.146575 0.597054 0.00257569
5163 2 12.13 15.6647 44.8341 0.198004 2.70528 -1.0304 0.0528915
5164 2 11.38 13.3947 38.6741 0.189016 1.0899 -0.904629 -1.35608
5165 2 7.43 14.2647 38.5741 0.192864 0.55175 -0.285867 -1.97592
5166 2 9.15 21.8747 45.6141 0.178034 0.441241 -0.710171 2.23727
5167 2 2.97 24.1047 44.2141 0.189437 0.458824 -0.880808 0.139714
5168 2 7.5 22.8747 41.8041 0.181809 0.703653 1.28919 0.431922
5169 2 6.69 21.8447 44.8041 0.206108 2.27188 -0.0386743 -0.808152
5170 2 7.29 23.2147 48.2641 0.190335 -0.341807 -0.0505384 -0.227417
5171 2 5.45 13.5147 42.4541 0.197987 -0.0710203 0.236675 -0.237868
5172 2 1.92 24.0147 38.9541 0.180732 -0.409007 0.667436 -0.854572
5173 2 5.05 22.9947 44.5941 0.212012 -0.248173 -0.143921 -0.37702
5174 2 9.73 17.9647 38.4441 0.183029 -0.544849 -0.0114415 -0.514618
5175 2 1.73 24.2947 47.1541 0.204137 -0.0844754 -0.535866 0.289343
5176 2 6.02 14.0147 40.0041 0.172569 0.700429 -0.75239 -0.238842
5177 2 9.34 19.6447 37.5441 0.198757 -0.392352 0.548791 -0.176853
5178 2 10.71 19.0047 45.3041 0.182266 -0.323122 -1.06153 1.28722
5179 2 1.86 19.4747 49.7041 0.189127 0.480685 -0.368954 -0.14672
5180 2 1.08 21.6047 47.9241 0.184945 -2.28754 -0.741705 -1.18019
5181 2 10.19 24.8347 45.4841 0.190645 0.843562 0.202279 0.0267244
5182 2 0.92 15.0047 40.6141 0.175967 0.878404 -1.05618 2.45225
5183 2 9.34 15.4547 41.5041 0.202541 0.483857 0.409856 -0.157727
5184 2 1.11 22.5347 44.5441 0.213347 0.786976 0.737272 -0.312219
5185 1 24.2747 15.0047 39.5141 -0.418491 0.27626 0.657283 -0.200451
5186 1 17.8047 18.4447 39.1441 -0.356019 0.340914 0.424396 -0.894495
5187 1 24.6147 19.7847 40.0441 -0.375672 0.10867 -0.210993 -1.85845
5188 1 15.8247 16.7247 42.1741 -0.401226 0.921394 -0.302112 -0.574759
5189 1 16.9847 24.1747 49.2341 -0.352542 1.21088 0.715055 0.323239
5190 1 19.7847 12.6247 39.5141 -0.375672 -0.527814 1.20547 -1.9529
5191 1 18.1747 22.3447 47.6441 -0.425659 0.260714 0.0438273 0.366048
5192 1 17.7647 23.6347 39.1641 -0.35229 -0.145261 -0.360994 0.00942653
5193 1 21.8347 23.5847 38.4341 -0.384824 0.872306 -1.54212 -0.918635
5194 1 24.5047 13.0847 46.2541 -0.432941 1.38587 0.30859 -1.86898
5195 1 17.4547 20.1647 49.0741 -0.33121 1.05765 -0.0925032 -0.578503
5196 1 16.0847 15.6347 38.4141 -0.329397 0.449043 1.35174 0.0296382
5197 1 24.3247 23.3447 42.0341 -0.392604 0.20521 1.05597 -2.4539
5198 1 16.3247 20.4947 39.8441 -0.464722 -0.268883 0.355959 0.230398
5199 1 22.2647 21.6047 47.5141 -0.365582 0.339085 1.66955 0.48715
5200 1 23.4447 17.7547 42.5041 -0.319963 0.138442 0.0561139 1.91463
5201 1 13.4147 16.5647 38.1741 -0.355457 0.745168 0.775278 -0.737672
5202 1 13.6847 18.4347 42.0941 -0.374759 -0.193314 0.928645 -0.354898
5203 1 22.5447 21.5347 40.6541 -0.354105 0.9108 0.645135 -2.49238
5204 1 20.8347 18.1647 47.7241 -0.373468 0.806804 -0.606198 -1.83731
5205 1 20.5047 17.1647 38.6341 -0.36779 0.704097 -2.90774 -0.607366
5206 1 15.6747 15.7847 45.5941 -0.401808 2.1381 -0.397597 -0.15747
5207 1 17.4647 18.6547 44.6241 -0.410388 -0.430375 0.366384 -0.2648
5208 1 16.3847 22.9947 41.2841 -0.402417 0.433468 0.3175 -0.0584922
5209 1 18.6947 17.0047 41.5441 -0.380616 -0.393494 -0.785018 -0.268532
5210 1 24.6247 14.7947 48.4441 -0.382165 -0.847414 -0.742866 1.12305
5211 1 19.2047 21.0147 41.4041 -0.40347 -1.14818 -0.761878 -0.553705
5212 1 18.3147 18.2847 47.1241 -0.349097 -2.30359 0.637167 -0.272958
5213 1 14.6247 19.3547 44.3241 -0.400385 -0.466026 0.743985 1.5471
5214 1 23.3347 20.1347 44.1141 -0.350545 0.885522 0.570836 0.035299
5215 1 20.4747 16.7247 43.9041 -0.327248 0.482409 0.0230896 -0.0798312
5216 1 17.7347 14.3647 48.8941 -0.42046 -1.16669 0.352019 0.51971
5217 1 13.9747 24.6047 40.7841 -0.410572 0.411251 -0.955771 0.46782
5218 1 14.4847 17.9347 47.0441 -0.307415 -0.567498 1.07234 -2.10709
5219 1 19.1047 21.4947 38.5441 -0.337036 -1.6184 -1.07736 -0.670251
5220 1 24.1947 18.6247 48.3441 -0.375509 0.109193 0.0673392 -0.490561
5221 1 18.5547 15.5147 45.2941 -0.386894 0.529737 -0.930102 -1.62602
5222 1 20.6647 13.8247 46.7641 -0.395923 -0.580833 0.677658 -0.139466
5223 1 13.7547 14.4647 44.4241 -0.381656 1.03096 0.0207614 1.57361
5224 1 21.9247 14.5547 43.2541 -0.386543 -0.466541 -1.80298 1.20751
5225 1 21.7747 15.7847 48.3041 -0.415654 0.367206 -0.157084 0.177907
5226 1 13.7547 20.9347 38.1441 -0.391658 -0.324859 -1.14427 0.312415
5227 1 23.6947 15.9247 44.8441 -0.362951 -2.51329 0.88349 -0.600385
5228 1 24.1447 12.7747 37.9341 -0.377211 -1.74594 -0.0721238 1.0075
5229 1 20.0747 14.4847 37.6141 -0.388924 0.179842 0.446095 1.55229
5230 1 21.3047 21.9647 44.7341 -0.38758 -0.342433 0.412111 -1.61058
5231 1 14.4547 23.9847 44.2241 -0.409735 0.352696 -0.503198 0.166529
5232 1 20.4647 23.7147 41.9941 -0.386294 -1.6736 -0.912951 -0.155655
5233 1 18.2647 21.6247 45.0441 -0.32204 -1.62589 0.149803 0.93976
5234 1 20.5547 23.6347 48.5541 -0.344452 0.363564 1.24912 -0.544017
5235 1 18.3847 13.2847 43.2441 -0.430297 0.345441 0.00800537 0.132207
5236 1 14.3247 24.1047 37.9741 -0.44761 -0.0496657 -0.645418 0.598473
5237 1 17.1047 23.7247 44.0641 -0.350743 -0.301423 -0.466429 -1.15929
5238 1 22.7647 18.7047 38.2241 -0.326364 0.996705 -0.777111 1.09362
5239 1 14.4547 23.5147 47.6641 -0.382521 -0.874421 1.41956 0.876523
5240 1 17.8047 14.5047 40.4741 -0.366244 -1.58906 1.40306 -0.800788
5241 1 21.0047 20.0347 49.5041 -0.416318 -0.455255 -0.0905671 0.376116
5242 1 22.9547 18.2547 45.9941 -0.394249 0.641338 1.45688 0.242685
5243 1 14.8147 18.6747 49.4341 -0.416528 -0.176628 0.565281 1.0813
5244 1 12.7447 21.2147 47.3841 -0.378105 1.90129 0.678164 1.19029
5245 1 21.9147 24.5747 44.9041 -0.329557 -1.40429 0.150419 0.698158
5246 1 13.8547 14.7647 41.5041 -0.409847 -0.897497 2.03046 -1.6184
5247 1 22.1347 16.1347 40.8941 -0.385426 -0.312393 -0.0178099 0.00844994
5248 1 13.1947 21.6647 44.7241 -0.389396 -0.0507828 -1.95378 0.371114
5249 2 23.5347 15.3147 40.0741 0.191006 0.242665 0.249597 -0.242675
5250 2 17.9547 17.9547 39.9341 0.193884 0.173007 -0.778939 1.25697
5251 2 12.6847 19.2447 40.6241 0.202656 0.689791 -0.383504 1.08413
5252 2 16.7247 16.6347 41.7941 0.179041 -0.617793 0.498767 0.550821
5253 2 16.0747 24.0047 49.0941 0.196223 -1.9257 -0.273379 -0.129461
5254 2 18.9747 24.5147 39.3241 0.175621 -0.00358752 -0.0767627 0.0486937
5255 2 17.8147 21.5847 48.1841 0.192166 0.344553 0.250865 -0.896865
5256 2 18.1847 22.7547 38.9741 0.184005 0.0441684 0.251751 0.0828235
5257 2 21.1547 23.5147 37.7441 0.17763 0.422579 -0.0590749 -0.677179
5258 2 12.7147 13.4847 45.6041 0.17344 -1.12381 -0.989661 0.443678
5259 2 17.9047 19.5247 48.4841 0.180688 0.237319 0.266769 0.0568827
5260 2 16.2847 16.6147 38.3941 0.193773 -0.43098 -1.59746 0.011487
5261 2 23.9947 22.6347 41.4841 0.193319 -0.344378 -0.238349 -0.197769
5262 2 15.4447 20.6147 39.4741 0.185159 0.135048 -0.0815664 -0.0868309
5263 2 21.9747 22.4847 47.8941 0.183594 0.0381942 -1.11771 -0.571161
5264 2 23.6247 17.2847 43.3841 0.169879 -0.43885 0.441066 -1.51327
5265 2 13.1247 16.2047 49.7741 0.177372 -0.291546 -0.537394 -0.242295
5266 2 12.8747 17.9547 42.2141 0.191063 -0.911665 -0.445051 0.172006
5267 2 21.9547 21.9247 41.2741 0.198767 -0.777808 0.453435 0.709475
5268 2 21.5247 18.3347 47.0141 0.18363 -0.873538 -0.131884 0.694462
5269 2 20.3647 16.2747 38.1341 0.157297 -0.370785 1.9901 0.389991
5270 2 16.6747 15.6647 45.5441 0.191194 -1.42391 0.140273 -0.00568627
5271 2 17.7147 18.3447 45.5241 0.18637 0.23108 -0.076006 -0.406505
5272 2 16.8847 23.3447 40.4741 0.186774 -0.369933 -0.593152 0.69192
5273 2 19.3747 17.0047 42.2241 0.196801 0.140716 0.238381 0.137596
5274 2 24.3247 14.0547 49.0841 0.177225 0.613588 1.15346 -0.980069
5275 2 19.2347 20.9847 40.4241 0.175367 0.0995734 0.218341 0.449134
5276 2 18.0647 17.4347 47.4641 0.221124 0.00679743 -0.644039 0.23631
5277 2 15.5347 19.1047 44.3141 0.191091 1.43385 -0.11563 0.19126
5278 2 24.1747 20.6647 44.1941 0.191114 -0.600428 -0.543264 -0.0195802
5279 2 20.8447 15.8947 43.5141 0.180758 0.299559 0.121731 0.376318
5280 2 17.0847 14.8147 49.4941 0.183436 0.773988 -0.148304 -0.517183
5281 2 13.1847 24.1347 41.1941 0.193332 1.2446 0.486254 -0.165083
5282 2 13.5447 17.7447 47.0541 0.198266 -0.394022 -0.607501 0.476839
5283 2 19.9847 21.5547 38.1641 0.192116 -0.0556456 -0.517778 -0.239866
5284 2 23.8047 18.6447 49.2341 0.192143 -0.194158 -0.0569228 0.0439566
5285 2 18.2947 14.6547 44.8641 0.183621 0.497814 1.05771 0.321717
5286 2 21.2547 14.4547 47.2241 0.182684 0.0118146 -0.096906 -0.0594841
5287 2 14.6147 14.8747 44.7941 0.202487 -1.14918 -0.17041 -0.33495
5288 2 22.5447 14.9747 43.8841 0.181258 0.112948 -0.135636 -0.230602
5289 2 21.5147 16.7347 48.2441 0.184907 -0.265507 -0.504539 0.00100015
5290 2 13.0847 20.5747 38.7841 0.199679 0.509365 0.674758 -0.308529
5291 2 23.5647 16.6447 45.4741 0.20226 -0.183432 0.403185 0.31232
5292 2 23.4747 24.4747 37.9141 0.195342 0.754028 1.17486 0.046743
5293 2 19.2747 14.2847 49.5241 0.187672 -0.296926 0.227214 0.205472
5294 2 21.5747 22.8947 44.5841 0.185572 -0.160209 0.106217 -0.443072
5295 2 14.2047 24.8847 44.1341 0.185591 -1.18375 1.35734 -0.0950325
5296 2 19.8147 24.3247 42.4141 0.175797 0.637222 -0.474316 -0.169099
5297 2 18.0347 20.7347 44.7741 0.218995 0.0580493 -0.600328 -0.182291
5298 2 20.5847 24.5647 48.1941 0.195423 -0.210874 -1.20668 0.445471
5299 2 17.9247 12.5047 43.6541 0.18894 0.122026 0.408566 -0.0842274
5300 2 13.4347 24.4347 37.7441 0.187844 0.420687 0.0199678 0.498795
5301 2 16.9847 23.3947 43.1241 0.183359 -0.0166765 0.130479 0.932364
5302 2 23.3847 18.7347 38.9841 0.201455 -0.0272102 0.593446 -0.47552
5303 2 14.9647 22.9947 47.0941 0.218254 1.17314 -0.879293 -1.41998
5304 2 17.1847 14.8547 39.7541 0.184876 0.756452 -0.550811 1.19332
5305 2 21.2847 20.7147 48.8941 0.185769 0.648318 0.253453 -0.371346
5306 2 23.3347 18.5047 46.9141 0.177024 -0.149993 -0.450773 -1.36997
5307 2 14.5947 18.4347 48.5141 0.183134 0.198197 0.153339 -0.208294
5308 2 12.9347 21.5047 46.4641 0.170817 -0.195488 -0.175725 0.133203
5309 2 21.1347 24.7847 45.4841 0.197811 0.866191 0.118053 -0.768181
5310 2 14.2047 13.8847 41.4041 0.192692 -0.221698 -1.01333 -0.53141
5311 2 22.4947 16.8847 41.4341 0.192316 -0.12597 -0.745339 -0.0156405
5312 2 13.8847 20.9347 44.6541 0.197896 -0.576728 0.967123 -0.266636
5313 2 24.6947 15.7647 39.0141 0.205745 -0.63771 -0.790007 0.707793
5314 2 18.7147 18.6647 38.8941 0.195051 -0.288684 -0.189984 -0.310419
5315 2 23.9447 20.2947 40.4741 0.211303 -0.832505 0.59797 0.813089
5316 2 15.4047 15.8847 41.9441 0.180348 -0.533152 -0.0678922 0.0315801
5317 2 17.4847 23.6147 48.6341 0.203952 0.127406 -0.381065 -0.58508
5318 2 20.0447 24.8347 40.3641 0.186687 0.821735 -0.728602 2.6177
5319 2 18.3847 22.1247 46.7041 0.201526 -0.668924 -0.412501 0.824095
5320 2 17.3747 23.9047 38.2941 0.192241 -0.183086 0.048458 -0.0612803
5321 2 21.3647 24.1247 39.0241 0.18221 -0.84254 1.4577 1.60205
5322 2 24.5147 13.8047 46.8741 0.171108 -0.388881 0.418177 1.32797
5323 2 16.6147 19.7247 49.1341 0.187175 -1.2645 -0.132501 0.621878
5324 2 15.1147 15.5347 38.3841 0.196792 0.335523 0.328198 0.0513065
5325 2 24.3347 23.0347 42.8941 0.212694 0.132245 -0.756142 2.53351
5326 2 16.7147 19.6747 39.4941 0.187744 0.0819396 0.0437766 -0.014522
5327 2 23.2447 21.6647 47.5141 0.189919 -0.381692 -0.312458 0.000712069
5328 2 23.1247 18.6447 42.7741 0.199547 0.402555 -0.46957 -0.0890556
5329 2 13.9547 17.3447 37.8641 0.18783 -0.395813 -0.206715 0.454027
5330 2 14.3847 17.8047 41.9441 0.202922 1.01915 -0.676957 -0.246075
5331 2 22.4647 22.0847 39.8041 0.193894 -0.0946738 -0.9346 1.59322
5332 2 20.8547 18.8747 48.3741 0.181307 0.148154 0.822038 0.803389
5333 2 21.0247 16.7347 39.3441 0.171346 -0.324562 0.687859 0.564217
5334 2 15.5647 16.7247 45.7441 0.18604 -0.390224 -0.00350036 0.188239
5335 2 17.5647 17.9847 43.9341 0.200549 0.113959 0.0926652 0.568066
5336 2 16.4147 22.0247 41.2241 0.200318 -0.122317 0.40455 -0.363298
5337 2 18.6147 16.0747 41.2341 0.180499 0.0639806 0.428621 0.0335439
5338 2 23.8447 15.3647 48.3241 0.186121 0.0360141 -0.322499 0.130676
5339 2 18.4047 20.4647 41.5941 0.206263 1.14922 0.802746 -0.0192023
5340 2 19.2547 18.3447 47.1641 0.201106 2.05203 -0.296831 0.216438
5341 2 14.2747 19.0347 43.4941 0.187749 -0.772043 -0.352065 -1.0586
5342 2 22.6347 20.8047 44.2141 0.185476 -0.39384 -0.00297369 -0.0332324
5343 2 21.1847 17.1147 44.4541 0.196504 -0.744424 -0.329171 -0.441284
5344 2 17.2847 13.5247 48.7141 0.193743 0.366892 -0.114325 0.0286721
5345 2 14.8247 24.1547 41.0341 0.187953 -1.23537 0.0337476 0.0339415
5346 2 14.4647 18.5447 46.2541 0.193418 0.561652 -0.413336 0.789875
5347 2 18.4947 20.9247 37.9441 0.185432 1.45644 0.977473 0.97827
5348 2 24.5647 19.4947 48.1441 0.183183 0.124936 0.275272 0.110945
5349 2 19.2547 15.9047 44.6441 0.173813 -1.21256 -0.276896 1.47213
5350 2 19.9647 14.4347 46.4341 0.171168 0.337025 -0.725358 0.216925
5351 2 13.6947 14.7047 43.5141 0.198334 -0.100614 0.233895 -1.44321
5352 2 21.7547 13.6347 43.6841 0.177467 0.392016 1.8779 -1.00921
5353 2 21.2847 15.3447 49.0241 0.189554 0.0720806 0.182775 -0.116
5354 2 13.8347 21.8847 38.1841 0.203751 -0.146576 0.597053 0.00257655
5355 2 24.5747 15.6647 44.8341 0.198005 2.70534 -1.03041 0.0528944
5356 2 23.8247 13.3947 38.6741 0.189016 1.0899 -0.904631 -1.35608
5357 2 19.8747 14.2647 38.5741 0.192864 0.55174 -0.28587 -1.97592
5358 2 21.5947 21.8747 45.6141 0.178035 0.441245 -0.710171 2.23728
5359 2 15.4147 24.1047 44.2141 0.189438 0.45886 -0.880804 0.139714
5360 2 19.9447 22.8747 41.8041 0.181809 0.703654 1.28919 0.431921
5361 2 19.1347 21.8447 44.8041 0.206108 2.27182 -0.0386863 -0.808137
5362 2 19.7347 23.2147 48.2641 0.190335 -0.341744 -0.0505132 -0.227393
5363 2 17.8947 13.5147 42.4541 0.197987 -0.0709994 0.236671 -0.237841
5364 2 14.3647 24.0147 38.9541 0.180732 -0.409007 0.667436 -0.854571
5365 2 17.4947 22.9947 44.5941 0.212012 -0.248163 -0.143934 -0.377012
5366 2 22.1747 17.9647 38.4441 0.183029 -0.544848 -0.0114401 -0.514617
5367 2 14.1747 24.2947 47.1541 0.204137 -0.0844727 -0.535873 0.289346
5368 2 18.4647 14.0147 40.0041 0.172569 0.700428 -0.75239 -0.238843
5369 2 21.7847 19.6447 37.5441 0.198756 -0.392374 0.548797 -0.176863
5370 2 23.1547 19.0047 45.3041 0.182266 -0.323119 -1.06153 1.28722
5371 2 14.3047 19.4747 49.7041 0.189127 0.480688 -0.368956 -0.14672
5372 2 13.5247 21.6047 47.9241 0.184944 -2.28753 -0.741702 -1.18019
5373 2 22.6347 24.8347 45.4841 0.190645 0.843509 0.20226 0.0266806
5374 2 13.3647 15.0047 40.6141 0.175967 0.878402 -1.05618 2.45225
5375 2 21.7847 15.4547 41.5041 0.202541 0.483863 0.409866 -0.157737
5376 2 13.5547 22.5347 44.5441 0.213347 0.786978 0.737272 -0.312219
5377 1 11.83 27.4494 39.5141 -0.418491 0.276271 0.657277 -0.200459
5378 1 5.36 30.8894 39.1441 -0.356019 0.340917 0.424391 -0.894493
5379 1 12.17 32.2294 40.0441 -0.375674 0.108704 -0.211017 -1.85847
5380 1 3.38 29.1694 42.1741 -0.401225 0.92139 -0.302072 -0.574741
5381 1 4.54 36.6194 49.2341 -0.352543 1.21093 0.715026 0.323212
5382 1 7.34 25.0694 39.5141 -0.375671 -0.527829 1.20545 -1.95288
5383 1 5.73 34.7894 47.6441 -0.425659 0.26073 0.0438942 0.366044
5384 1 5.32 36.0794 39.1641 -0.35229 -0.145329 -0.36086 0.00941813
5385 1 9.39 36.0294 38.4341 -0.384824 0.872288 -1.5421 -0.918622
5386 1 12.06 25.5294 46.2541 -0.432941 1.38585 0.308547 -1.86898
5387 1 5.01 32.6094 49.0741 -0.331212 1.0576 -0.0926091 -0.57854
5388 1 3.64 28.0794 38.4141 -0.329396 0.44901 1.35178 0.0296348
5389 1 11.88 35.7894 42.0341 -0.392605 0.205213 1.05599 -2.45395
5390 1 3.88 32.9394 39.8441 -0.464722 -0.268931 0.355978 0.230387
5391 1 9.82 34.0494 47.5141 -0.365582 0.339114 1.66963 0.487175
5392 1 11 30.1994 42.5041 -0.319962 0.138441 0.056107 1.91463
5393 1 0.97 29.0094 38.1741 -0.355457 0.745158 0.775265 -0.73767
5394 1 1.24 30.8794 42.0941 -0.374758 -0.193238 0.928604 -0.354911
5395 1 10.1 33.9794 40.6541 -0.354105 0.910798 0.645135 -2.49238
5396 1 8.39 30.6094 47.7241 -0.373467 0.806784 -0.606203 -1.83729
5397 1 8.06 29.6094 38.6341 -0.36779 0.704079 -2.90773 -0.607387
5398 1 3.23 28.2294 45.5941 -0.401808 2.13811 -0.397681 -0.157484
5399 1 5.02 31.0994 44.6241 -0.410389 -0.430374 0.366376 -0.264801
5400 1 3.94 35.4394 41.2841 -0.402418 0.433468 0.317396 -0.0584912
5401 1 6.25 29.4494 41.5441 -0.380616 -0.393506 -0.785017 -0.268545
5402 1 12.18 27.2394 48.4441 -0.382165 -0.847398 -0.742905 1.12307
5403 1 6.76 33.4594 41.4041 -0.40347 -1.14815 -0.761853 -0.553708
5404 1 5.87 30.7294 47.1241 -0.349097 -2.30362 0.637168 -0.272956
5405 1 2.18 31.7994 44.3241 -0.400384 -0.466084 0.744004 1.54709
5406 1 10.89 32.5794 44.1141 -0.350544 0.885473 0.570964 0.0353171
5407 1 8.03 29.1694 43.9041 -0.327248 0.482451 0.0231373 -0.0797876
5408 1 5.29 26.8094 48.8941 -0.42046 -1.1667 0.351995 0.519706
5409 1 1.53 37.0494 40.7841 -0.410572 0.411221 -0.955797 0.467829
5410 1 2.04 30.3794 47.0441 -0.307415 -0.56747 1.07235 -2.1071
5411 1 6.66 33.9394 38.5441 -0.337037 -1.61833 -1.07735 -0.670266
5412 1 11.75 31.0694 48.3441 -0.375509 0.109196 0.0673526 -0.490551
5413 1 6.11 27.9594 45.2941 -0.386894 0.529732 -0.930134 -1.62604
5414 1 8.22 26.2694 46.7641 -0.395922 -0.580867 0.677718 -0.139476
5415 1 1.31 26.9094 44.4241 -0.381656 1.03094 0.0207516 1.57362
5416 1 9.48 26.9994 43.2541 -0.386543 -0.466534 -1.80298 1.20751
5417 1 9.33 28.2294 48.3041 -0.415653 0.367207 -0.157086 0.177907
5418 1 1.31 33.3794 38.1441 -0.391658 -0.324833 -1.14423 0.312394
5419 1 11.25 28.3694 44.8441 -0.362952 -2.51322 0.883471 -0.600384
5420 1 11.7 25.2194 37.9341 -0.377211 -1.74596 -0.0721505 1.00749
5421 1 7.63 26.9294 37.6141 -0.388925 0.179814 0.446092 1.55228
5422 1 8.86 34.4094 44.7341 -0.387579 -0.342394 0.412207 -1.61059
5423 1 2.01 36.4294 44.2241 -0.409736 0.352791 -0.503409 0.166551
5424 1 8.02 36.1594 41.9941 -0.386294 -1.6736 -0.912932 -0.155648
5425 1 5.82 34.0694 45.0441 -0.322041 -1.62594 0.149853 0.939804
5426 1 8.11 36.0794 48.5541 -0.344451 0.363673 1.24924 -0.544008
5427 1 5.94 25.7294 43.2441 -0.430298 0.345474 0.00801709 0.132231
5428 1 1.88 36.5494 37.9741 -0.447611 -0.0496269 -0.645434 0.598485
5429 1 4.66 36.1694 44.0641 -0.350744 -0.301439 -0.466362 -1.15926
5430 1 10.32 31.1494 38.2241 -0.326364 0.996694 -0.777111 1.0936
5431 1 2.01 35.9594 47.6641 -0.382521 -0.874385 1.41948 0.876539
5432 1 5.36 26.9494 40.4741 -0.366244 -1.58905 1.40305 -0.800787
5433 1 8.56 32.4794 49.5041 -0.416318 -0.455299 -0.0905553 0.3761
5434 1 10.51 30.6994 45.9941 -0.394248 0.641348 1.45689 0.242697
5435 1 2.37 31.1194 49.4341 -0.416528 -0.176587 0.565225 1.08129
5436 1 0.3 33.6594 47.3841 -0.378105 1.9013 0.678181 1.19026
5437 1 9.47 37.0194 44.9041 -0.329556 -1.4044 0.150384 0.698117
5438 1 1.41 27.2094 41.5041 -0.409847 -0.897488 2.03042 -1.6184
5439 1 9.69 28.5794 40.8941 -0.385426 -0.312352 -0.0177359 0.00842674
5440 1 0.75 34.1094 44.7241 -0.389396 -0.0507534 -1.95394 0.371128
5441 2 11.09 27.7594 40.0741 0.191006 0.242655 0.249603 -0.242669
5442 2 5.51 30.3994 39.9341 0.193884 0.173004 -0.778938 1.25697
5443 2 0.24 31.6894 40.6241 0.202655 0.68979 -0.383503 1.08412
5444 2 4.28 29.0794 41.7941 0.179041 -0.617774 0.498766 0.550814
5445 2 3.63 36.4494 49.0941 0.196223 -1.92572 -0.273383 -0.129466
5446 2 6.53 36.9594 39.3241 0.175621 -0.00359975 -0.0767811 0.0486949
5447 2 5.37 34.0294 48.1841 0.192167 0.34453 0.250816 -0.896841
5448 2 5.74 35.1994 38.9741 0.184006 0.0442129 0.251639 0.0828002
5449 2 8.71 35.9594 37.7441 0.17763 0.42258 -0.0590786 -0.67718
5450 2 0.27 25.9294 45.6041 0.17344 -1.12382 -0.98966 0.443686
5451 2 5.46 31.9694 48.4841 0.180688 0.237294 0.266819 0.0569202
5452 2 3.84 29.0594 38.3941 0.193773 -0.430978 -1.59749 0.0114879
5453 2 11.55 35.0794 41.4841 0.193319 -0.344379 -0.238351 -0.197764
5454 2 3 33.0594 39.4741 0.185159 0.135075 -0.081561 -0.0868138
5455 2 9.53 34.9294 47.8941 0.183594 0.0382099 -1.11777 -0.571185
5456 2 11.18 29.7294 43.3841 0.169879 -0.43885 0.441066 -1.51327
5457 2 0.68 28.6494 49.7741 0.177371 -0.291546 -0.537396 -0.242294
5458 2 0.43 30.3994 42.2141 0.191063 -0.911688 -0.445061 0.172009
5459 2 9.51 34.3694 41.2741 0.198767 -0.777808 0.453436 0.709474
5460 2 9.08 30.7794 47.0141 0.18363 -0.873518 -0.131878 0.694447
5461 2 7.92 28.7194 38.1341 0.157297 -0.37078 1.9901 0.389995
5462 2 4.23 28.1094 45.5441 0.191194 -1.42391 0.140273 -0.00568647
5463 2 5.27 30.7894 45.5241 0.18637 0.231081 -0.0760033 -0.406507
5464 2 4.44 35.7894 40.4741 0.186774 -0.369927 -0.593136 0.691909
5465 2 6.93 29.4494 42.2241 0.1968 0.140728 0.238379 0.137608
5466 2 11.88 26.4994 49.0841 0.177225 0.613591 1.15348 -0.980085
5467 2 6.79 33.4294 40.4241 0.175368 0.0995651 0.218333 0.449138
5468 2 5.62 29.8794 47.4641 0.221124 0.00679766 -0.644039 0.23631
5469 2 3.09 31.5494 44.3141 0.191091 1.4339 -0.115643 0.191259
5470 2 11.73 33.1094 44.1941 0.191113 -0.600457 -0.543299 -0.0195846
5471 2 8.4 28.3394 43.5141 0.180758 0.299565 0.121713 0.37631
5472 2 4.64 27.2594 49.4941 0.183435 0.773987 -0.148293 -0.517178
5473 2 0.74 36.5794 41.1941 0.193332 1.24462 0.486274 -0.165096
5474 2 1.1 30.1894 47.0541 0.198266 -0.394049 -0.607507 0.476839
5475 2 7.54 33.9994 38.1641 0.192116 -0.0556888 -0.517782 -0.239846
5476 2 11.36 31.0894 49.2341 0.192143 -0.19415 -0.0569209 0.0439434
5477 2 5.85 27.0994 44.8641 0.183621 0.497823 1.05774 0.32173
5478 2 8.81 26.8994 47.2241 0.182684 0.0117989 -0.0969235 -0.0594967
5479 2 2.17 27.3194 44.7941 0.202488 -1.14916 -0.170407 -0.334948
5480 2 10.1 27.4194 43.8841 0.181257 0.112947 -0.135635 -0.230604
5481 2 9.07 29.1794 48.2441 0.184907 -0.265507 -0.504537 0.000999481
5482 2 0.64 33.0194 38.7841 0.199679 0.509332 0.674722 -0.308502
5483 2 11.12 29.0894 45.4741 0.20226 -0.183436 0.403188 0.312322
5484 2 11.03 36.9194 37.9141 0.195342 0.754093 1.17494 0.0467486
5485 2 6.83 26.7294 49.5241 0.187672 -0.296909 0.227218 0.205479
5486 2 9.13 35.3394 44.5841 0.185571 -0.160237 0.106123 -0.443056
5487 2 1.76 37.3294 44.1341 0.185592 -1.1838 1.35754 -0.0950542
5488 2 7.37 36.7694 42.4141 0.175797 0.637228 -0.474338 -0.169108
5489 2 5.59 33.1794 44.7741 0.218995 0.0580229 -0.600407 -0.182312
5490 2 8.14 37.0094 48.1941 0.195424 -0.210883 -1.20674 0.445494
5491 2 5.48 24.9494 43.6541 0.18894 0.122014 0.408553 -0.0842255
5492 2 0.99 36.8794 37.7441 0.187845 0.420652 0.0199848 0.498783
5493 2 4.54 35.8394 43.1241 0.18336 -0.0166804 0.130444 0.932327
5494 2 10.94 31.1794 38.9841 0.201455 -0.0271913 0.593446 -0.475503
5495 2 2.52 35.4394 47.0941 0.218254 1.17313 -0.879282 -1.41996
5496 2 4.74 27.2994 39.7541 0.184876 0.756447 -0.550808 1.19332
5497 2 8.84 33.1594 48.8941 0.185769 0.648323 0.253464 -0.371354
5498 2 10.89 30.9494 46.9141 0.177024 -0.150001 -0.450777 -1.36998
5499 2 2.15 30.8794 48.5141 0.183134 0.198194 0.153337 -0.2083
5500 2 0.49 33.9494 46.4641 0.170817 -0.195496 -0.175735 0.13322
5501 2 8.69 37.2294 45.4841 0.197812 0.86623 0.118051 -0.768204
5502 2 1.76 26.3294 41.4041 0.192692 -0.221711 -1.0133 -0.531407
5503 2 10.05 29.3294 41.4341 0.192316 -0.12598 -0.745353 -0.0156559
5504 2 1.44 33.3794 44.6541 0.197896 -0.576792 0.967201 -0.266631
5505 2 12.25 28.2094 39.0141 0.205745 -0.637712 -0.790006 0.707796
5506 2 6.27 31.1094 38.8941 0.19505 -0.288683 -0.189982 -0.31042
5507 2 11.5 32.7394 40.4741 0.211302 -0.832543 0.597998 0.813111
5508 2 2.96 28.3294 41.9441 0.180348 -0.533169 -0.0679285 0.0315707
5509 2 5.04 36.0594 48.6341 0.203951 0.127375 -0.381035 -0.585048
5510 2 7.6 37.2794 40.3641 0.186688 0.821742 -0.728612 2.61773
5511 2 5.94 34.5694 46.7041 0.201527 -0.66892 -0.412513 0.824074
5512 2 4.93 36.3494 38.2941 0.192241 -0.183072 0.0484428 -0.0612556
5513 2 8.92 36.5694 39.0241 0.18221 -0.842525 1.45769 1.60203
5514 2 12.07 26.2494 46.8741 0.171108 -0.388876 0.418204 1.32799
5515 2 4.17 32.1694 49.1341 0.187174 -1.26442 -0.132454 0.621877
5516 2 2.67 27.9794 38.3841 0.196792 0.335551 0.328195 0.051308
5517 2 11.89 35.4794 42.8941 0.212694 0.132244 -0.756159 2.53355
5518 2 4.27 32.1194 39.4941 0.187744 0.0819594 0.043756 -0.0145256
5519 2 10.8 34.1094 47.5141 0.189919 -0.381738 -0.312467 0.000710995
5520 2 10.68 31.0894 42.7741 0.199547 0.402555 -0.46957 -0.0890562
5521 2 1.51 29.7894 37.8641 0.18783 -0.395801 -0.206702 0.454025
5522 2 1.94 30.2494 41.9441 0.202921 1.0191 -0.676907 -0.246063
5523 2 10.02 34.5294 39.8041 0.193895 -0.0946726 -0.9346 1.59322
5524 2 8.41 31.3194 48.3741 0.181307 0.148157 0.822037 0.803387
5525 2 8.58 29.1794 39.3441 0.171345 -0.324549 0.687847 0.564234
5526 2 3.12 29.1694 45.7441 0.186041 -0.390232 -0.00341397 0.188252
5527 2 5.12 30.4294 43.9341 0.200549 0.113958 0.092669 0.568069
5528 2 3.97 34.4694 41.2241 0.200318 -0.122325 0.404638 -0.363287
5529 2 6.17 28.5194 41.2341 0.180499 0.0639815 0.428621 0.0335447
5530 2 11.4 27.8094 48.3241 0.186121 0.0359949 -0.322488 0.130675
5531 2 5.96 32.9094 41.5941 0.206263 1.1492 0.802728 -0.0192032
5532 2 6.81 30.7894 47.1641 0.201106 2.05205 -0.29683 0.216438
5533 2 1.83 31.4794 43.4941 0.187749 -0.772041 -0.352065 -1.0586
5534 2 10.19 33.2494 44.2141 0.185475 -0.393765 -0.00305795 -0.0332442
5535 2 8.74 29.5594 44.4541 0.196503 -0.744471 -0.3292 -0.44132
5536 2 4.84 25.9694 48.7141 0.193742 0.366907 -0.11431 0.0286721
5537 2 2.38 36.5994 41.0341 0.187953 -1.23536 0.0337478 0.0339409
5538 2 2.02 30.9894 46.2541 0.193418 0.561652 -0.413337 0.789875
5539 2 6.05 33.3694 37.9441 0.185432 1.45642 0.977463 0.978261
5540 2 12.12 31.9394 48.1441 0.183183 0.124926 0.275257 0.110951
5541 2 6.81 28.3494 44.6441 0.173813 -1.21257 -0.276894 1.47213
5542 2 7.52 26.8794 46.4341 0.171167 0.337073 -0.725399 0.216946
5543 2 1.25 27.1494 43.5141 0.198334 -0.100612 0.233898 -1.44322
5544 2 9.31 26.0794 43.6841 0.177466 0.392012 1.8779 -1.00921
5545 2 8.84 27.7894 49.0241 0.189554 0.0720797 0.182773 -0.115999
5546 2 1.39 34.3294 38.1841 0.203751 -0.146567 0.597054 0.00256851
5547 2 12.13 28.1094 44.8341 0.198004 2.70528 -1.0304 0.0528916
5548 2 11.38 25.8394 38.6741 0.189016 1.0899 -0.904611 -1.35607
5549 2 7.43 26.7094 38.5741 0.192864 0.551748 -0.285872 -1.97592
5550 2 9.15 34.3194 45.6141 0.178035 0.441242 -0.71017 2.23727
5551 2 2.97 36.5494 44.2141 0.189438 0.45882 -0.880799 0.139713
5552 2 7.5 35.3194 41.8041 0.181809 0.703648 1.28919 0.431926
5553 2 6.69 34.2894 44.8041 0.206108 2.2719 -0.0386627 -0.808158
5554 2 7.29 35.6594 48.2641 0.190336 -0.341839 -0.0505602 -0.227426
5555 2 5.45 25.9594 42.4541 0.197987 -0.0710198 0.236675 -0.237867
5556 2 1.92 36.4594 38.9541 0.180732 -0.409007 0.667436 -0.85457
5557 2 5.05 35.4394 44.5941 0.212012 -0.248153 -0.143966 -0.377005
5558 2 9.73 30.4094 38.4441 0.183029 -0.544851 -0.0114405 -0.514619
5559 2 1.73 36.7394 47.1541 0.204137 -0.0844984 -0.535806 0.289309
5560 2 6.02 26.4594 40.0041 0.172569 0.700431 -0.752391 -0.238841
5561 2 9.34 32.0894 37.5441 0.198756 -0.392335 0.548773 -0.17684
5562 2 10.71 31.4494 45.3041 0.182266 -0.323121 -1.06153 1.28721
5563 2 1.86 31.9194 49.7041 0.189126 0.480653 -0.368901 -0.146704
5564 2 1.08 34.0494 47.9241 0.184945 -2.28754 -0.741705 -1.18019
5565 2 10.19 37.2794 45.4841 0.190646 0.843583 0.202289 0.0267428
5566 2 0.92 27.4494 40.6141 0.175966 0.878405 -1.05618 2.45225
5567 2 9.34 27.8994 41.5041 0.202541 0.483835 0.409811 -0.157696
5568 2 1.11 34.9794 44.5441 0.213346 0.787011 0.737345 -0.312237
5569 1 24.2747 27.4494 39.5141 -0.418492 0.276269 0.657276 -0.200458
5570 1 17.8047 30.8894 39.1441 -0.356019 0.340914 0.424394 -0.894495
5571 1 24.6147 32.2294 40.0441 -0.375673 0.108705 -0.21102 -1.85847
5572 1 15.8247 29.1694 42.1741 -0.401226 0.921412 -0.302075 -0.57475
5573 1 16.9847 36.6194 49.2341 -0.352542 1.21093 0.715026 0.32321
5574 1 19.7847 25.0694 39.5141 -0.375672 -0.527818 1.20545 -1.95287
5575 1 18.1747 34.7894 47.6441 -0.42566 0.260732 0.0438913 0.366039
5576 1 17.7647 36.0794 39.1641 -0.35229 -0.145318 -0.360873 0.00942984
5577 1 21.8347 36.0294 38.4341 -0.384824 0.872305 -1.54212 -0.918638
5578 1 24.5047 25.5294 46.2541 -0.432941 1.38586 0.308554 -1.86899
5579 1 17.4547 32.6094 49.0741 -0.331211 1.05759 -0.0925999 -0.578531
5580 1 16.0847 28.0794 38.4141 -0.329396 0.449051 1.35178 0.0296366
5581 1 24.3247 35.7894 42.0341 -0.392605 0.205212 1.05599 -2.45395
5582 1 16.3247 32.9394 39.8441 -0.464721 -0.268879 0.355953 0.230397
5583 1 22.2647 34.0494 47.5141 -0.365582 0.339081 1.66962 0.487174
5584 1 23.4447 30.1994 42.5041 -0.319963 0.138439 0.0561085 1.91463
5585 1 13.4147 29.0094 38.1741 -0.355457 0.745169 0.775278 -0.737674
5586 1 13.6847 30.8794 42.0941 -0.374759 -0.193264 0.928601 -0.354906
5587 1 22.5447 33.9794 40.6541 -0.354105 0.910795 0.645136 -2.49238
5588 1 20.8347 30.6094 47.7241 -0.373467 0.806804 -0.606196 -1.83731
5589 1 20.5047 29.6094 38.6341 -0.36779 0.704096 -2.90774 -0.607367
5590 1 15.6747 28.2294 45.5941 -0.401808 2.13812 -0.397684 -0.157485
5591 1 17.4647 31.0994 44.6241 -0.410389 -0.430377 0.366381 -0.264801
5592 1 16.3847 35.4394 41.2841 -0.402417 0.433463 0.317399 -0.0584832
5593 1 18.6947 29.4494 41.5441 -0.380616 -0.393495 -0.785018 -0.268532
5594 1 24.6247 27.2394 48.4441 -0.382165 -0.847404 -0.742913 1.12308
5595 1 19.2047 33.4594 41.4041 -0.40347 -1.14818 -0.761872 -0.553699
5596 1 18.3147 30.7294 47.1241 -0.349097 -2.30359 0.637168 -0.272956
5597 1 14.6247 31.7994 44.3241 -0.400384 -0.46603 0.743992 1.5471
5598 1 23.3347 32.5794 44.1141 -0.350544 0.885544 0.57094 0.0353155
5599 1 20.4747 29.1694 43.9041 -0.327248 0.482417 0.0231406 -0.0797999
5600 1 17.7347 26.8094 48.8941 -0.42046 -1.16668 0.35201 0.519702
5601 1 13.9747 37.0494 40.7841 -0.410572 0.411228 -0.9558 0.467833
5602 1 14.4847 30.3794 47.0441 -0.307415 -0.5675 1.07235 -2.10709
5603 1 19.1047 33.9394 38.5441 -0.337037 -1.61839 -1.07736 -0.670253
5604 1 24.1947 31.0694 48.3441 -0.375509 0.109193 0.0673403 -0.490561
5605 1 18.5547 27.9594 45.2941 -0.386894 0.529721 -0.930137 -1.62603
5606 1 20.6647 26.2694 46.7641 -0.395923 -0.580835 0.677699 -0.139462
5607 1 13.7547 26.9094 44.4241 -0.381657 1.03096 0.0207575 1.57362
5608 1 21.9247 26.9994 43.2541 -0.386543 -0.46654 -1.80298 1.20751
5609 1 21.7747 28.2294 48.3041 -0.415653 0.367204 -0.157084 0.177909
5610 1 13.7547 33.3794 38.1441 -0.391659 -0.324837 -1.14423 0.312395
5611 1 23.6947 28.3694 44.8441 -0.362952 -2.51329 0.883492 -0.600383
5612 1 24.1447 25.2194 37.9341 -0.37721 -1.74592 -0.0721179 1.00749
5613 1 20.0747 26.9294 37.6141 -0.388925 0.179848 0.446101 1.55229
5614 1 21.3047 34.4094 44.7341 -0.387579 -0.342412 0.412187 -1.6106
5615 1 14.4547 36.4294 44.2241 -0.409735 0.352749 -0.503411 0.166551
5616 1 20.4647 36.1594 41.9941 -0.386294 -1.67362 -0.912917 -0.155635
5617 1 18.2647 34.0694 45.0441 -0.322041 -1.62589 0.149869 0.939791
5618 1 20.5547 36.0794 48.5541 -0.344451 0.363594 1.24921 -0.544035
5619 1 18.3847 25.7294 43.2441 -0.430297 0.345441 0.00801064 0.132205
5620 1 14.3247 36.5494 37.9741 -0.447611 -0.0496433 -0.645428 0.598482
5621 1 17.1047 36.1694 44.0641 -0.350744 -0.301449 -0.466349 -1.15927
5622 1 22.7647 31.1494 38.2241 -0.326364 0.996706 -0.777109 1.09362
5623 1 14.4547 35.9594 47.6641 -0.382521 -0.874401 1.41951 0.876553
5624 1 17.8047 26.9494 40.4741 -0.366244 -1.58906 1.40306 -0.800788
5625 1 21.0047 32.4794 49.5041 -0.416318 -0.455268 -0.0905531 0.376102
5626 1 22.9547 30.6994 45.9941 -0.394249 0.641337 1.45688 0.242693
5627 1 14.8147 31.1194 49.4341 -0.416527 -0.176595 0.565232 1.08128
5628 1 12.7447 33.6594 47.3841 -0.378105 1.90129 0.678176 1.19027
5629 1 21.9147 37.0194 44.9041 -0.329557 -1.4043 0.150391 0.698128
5630 1 13.8547 27.2094 41.5041 -0.409847 -0.897482 2.03042 -1.6184
5631 1 22.1347 28.5794 40.8941 -0.385426 -0.312373 -0.0177651 0.00842495
5632 1 13.1947 34.1094 44.7241 -0.389396 -0.0507624 -1.95394 0.371129
5633 2 23.5347 27.7594 40.0741 0.191006 0.242657 0.249603 -0.242669
5634 2 17.9547 30.3994 39.9341 0.193884 0.173006 -0.778937 1.25697
5635 2 12.6847 31.6894 40.6241 0.202655 0.689792 -0.383505 1.08412
5636 2 16.7247 29.0794 41.7941 0.179041 -0.617795 0.498768 0.550822
5637 2 16.0747 36.4494 49.0941 0.196223 -1.92572 -0.273383 -0.129465
5638 2 18.9747 36.9594 39.3241 0.175621 -0.00360676 -0.0767858 0.048695
5639 2 17.8147 34.0294 48.1841 0.192167 0.344534 0.250818 -0.896843
5640 2 18.1847 35.1994 38.9741 0.184006 0.0442102 0.251645 0.0828017
5641 2 21.1547 35.9594 37.7441 0.17763 0.42258 -0.0590763 -0.677178
5642 2 12.7147 25.9294 45.6041 0.17344 -1.12381 -0.989652 0.443675
5643 2 17.9047 31.9694 48.4841 0.180688 0.237308 0.266809 0.0569095
5644 2 16.2847 29.0594 38.3941 0.193773 -0.430984 -1.5975 0.0114878
5645 2 23.9947 35.0794 41.4841 0.193319 -0.344377 -0.23835 -0.197763
5646 2 15.4447 33.0594 39.4741 0.185158 0.135039 -0.0815599 -0.086831
5647 2 21.9747 34.9294 47.8941 0.183595 0.0382011 -1.11777 -0.571182
5648 2 23.6247 29.7294 43.3841 0.169879 -0.43885 0.441067 -1.51327
5649 2 13.1247 28.6494 49.7741 0.177372 -0.291546 -0.537395 -0.242296
5650 2 12.8747 30.3994 42.2141 0.191063 -0.91167 -0.445049 0.172007
5651 2 21.9547 34.3694 41.2741 0.198767 -0.777807 0.453435 0.709473
5652 2 21.5247 30.7794 47.0141 0.18363 -0.873537 -0.131885 0.694462
5653 2 20.3647 28.7194 38.1341 0.157297 -0.370784 1.9901 0.389992
5654 2 16.6747 28.1094 45.5441 0.191194 -1.42391 0.140271 -0.00568627
5655 2 17.7147 30.7894 45.5241 0.18637 0.23108 -0.0760055 -0.406505
5656 2 16.8847 35.7894 40.4741 0.186774 -0.369925 -0.593137 0.691905
5657 2 19.3747 29.4494 42.2241 0.196801 0.140718 0.23838 0.137598
5658 2 24.3247 26.4994 49.0841 0.177225 0.613597 1.15349 -0.98009
5659 2 19.2347 33.4294 40.4241 0.175367 0.0995696 0.218335 0.449132
5660 2 18.0647 29.8794 47.4641 0.221124 0.00679766 -0.644039 0.236309
5661 2 15.5347 31.5494 44.3141 0.191091 1.43386 -0.115629 0.19126
5662 2 24.1747 33.1094 44.1941 0.191113 -0.600478 -0.543315 -0.0195872
5663 2 20.8447 28.3394 43.5141 0.180759 0.299575 0.121703 0.376308
5664 2 17.0847 27.2594 49.4941 0.183435 0.773977 -0.148292 -0.517173
5665 2 13.1847 36.5794 41.1941 0.193332 1.24462 0.486274 -0.165096
5666 2 13.5447 30.1894 47.0541 0.198266 -0.394022 -0.607502 0.476839
5667 2 19.9847 33.9994 38.1641 0.192116 -0.0556468 -0.51778 -0.239865
5668 2 23.8047 31.0894 49.2341 0.192143 -0.194158 -0.0569234 0.0439584
5669 2 18.2947 27.0994 44.8641 0.183621 0.497822 1.05774 0.321731
5670 2 21.2547 26.8994 47.2241 0.182684 0.0118025 -0.0969266 -0.0594947
5671 2 14.6147 27.3194 44.7941 0.202487 -1.14918 -0.170412 -0.334951
5672 2 22.5447 27.4194 43.8841 0.181257 0.112947 -0.135637 -0.230602
5673 2 21.5147 29.1794 48.2441 0.184907 -0.265507 -0.504541 0.00100036
5674 2 13.0847 33.0194 38.7841 0.199679 0.509335 0.674722 -0.308503
5675 2 23.5647 29.0894 45.4741 0.20226 -0.183431 0.403182 0.312319
5676 2 23.4747 36.9194 37.9141 0.195342 0.754059 1.17491 0.0467485
5677 2 19.2747 26.7294 49.5241 0.187672 -0.296933 0.227211 0.205468
5678 2 21.5747 35.3394 44.5841 0.185572 -0.160228 0.106143 -0.443058
5679 2 14.2047 37.3294 44.1341 0.185592 -1.1838 1.35754 -0.0950542
5680 2 19.8147 36.7694 42.4141 0.175797 0.637247 -0.474352 -0.169119
5681 2 18.0347 33.1794 44.7741 0.218995 0.0580216 -0.60041 -0.182313
5682 2 20.5847 37.0094 48.1941 0.195424 -0.210873 -1.20674 0.445495
5683 2 17.9247 24.9494 43.6541 0.188941 0.122024 0.408561 -0.084226
5684 2 13.4347 36.8794 37.7441 0.187845 0.420666 0.0199799 0.498787
5685 2 16.9847 35.8394 43.1241 0.18336 -0.016677 0.130444 0.932328
5686 2 23.3847 31.1794 38.9841 0.201455 -0.0272089 0.593445 -0.47552
5687 2 14.9647 35.4394 47.0941 0.218254 1.17315 -0.879297 -1.41998
5688 2 17.1847 27.2994 39.7541 0.184875 0.756452 -0.550811 1.19332
5689 2 21.2847 33.1594 48.8941 0.185769 0.648315 0.253455 -0.371346
5690 2 23.3347 30.9494 46.9141 0.177024 -0.149993 -0.450775 -1.36997
5691 2 14.5947 30.8794 48.5141 0.183134 0.198197 0.153338 -0.208294
5692 2 12.9347 33.9494 46.4641 0.170817 -0.195493 -0.175734 0.133218
5693 2 21.1347 37.2294 45.4841 0.197811 0.866183 0.118062 -0.768171
5694 2 14.2047 26.3294 41.4041 0.192692 -0.221714 -1.0133 -0.531407
5695 2 22.4947 29.3294 41.4341 0.192316 -0.125967 -0.745334 -0.0156451
5696 2 13.8847 33.3794 44.6541 0.197896 -0.576786 0.967197 -0.266632
5697 2 24.6947 28.2094 39.0141 0.205745 -0.637711 -0.790006 0.707794
5698 2 18.7147 31.1094 38.8941 0.195051 -0.288684 -0.189983 -0.310418
5699 2 23.9447 32.7394 40.4741 0.211302 -0.832543 0.597998 0.813111
5700 2 15.4047 28.3294 41.9441 0.180348 -0.53317 -0.0679277 0.0315709
5701 2 17.4847 36.0594 48.6341 0.203951 0.127374 -0.381033 -0.585047
5702 2 20.0447 37.2794 40.3641 0.186687 0.821739 -0.728611 2.61772
5703 2 18.3847 34.5694 46.7041 0.201527 -0.668924 -0.412512 0.824082
5704 2 17.3747 36.3494 38.2941 0.192241 -0.183081 0.0484476 -0.061268
5705 2 21.3647 36.5694 39.0241 0.18221 -0.842539 1.4577 1.60205
5706 2 24.5147 26.2494 46.8741 0.171108 -0.388879 0.418205 1.32799
5707 2 16.6147 32.1694 49.1341 0.187174 -1.26443 -0.132452 0.621879
5708 2 15.1147 27.9794 38.3841 0.196792 0.335519 0.328194 0.0513076
5709 2 24.3347 35.4794 42.8941 0.212694 0.132245 -0.756157 2.53355
5710 2 16.7147 32.1194 39.4941 0.187744 0.0819446 0.0437779 -0.014519
5711 2 23.2447 34.1094 47.5141 0.18992 -0.381695 -0.312469 0.000708898
5712 2 23.1247 31.0894 42.7741 0.199547 0.402556 -0.469571 -0.0890563
5713 2 13.9547 29.7894 37.8641 0.18783 -0.395812 -0.206715 0.454028
5714 2 14.3847 30.2494 41.9441 0.202921 1.01911 -0.676915 -0.246065
5715 2 22.4647 34.5294 39.8041 0.193894 -0.0946727 -0.934601 1.59322
5716 2 20.8547 31.3194 48.3741 0.181307 0.148154 0.822037 0.803389
5717 2 21.0247 29.1794 39.3441 0.171346 -0.324561 0.687859 0.564217
5718 2 15.5647 29.1694 45.7441 0.186041 -0.390235 -0.00341027 0.188253
5719 2 17.5647 30.4294 43.9341 0.200549 0.11396 0.0926651 0.568066
5720 2 16.4147 34.4694 41.2241 0.200318 -0.122322 0.404637 -0.36329
5721 2 18.6147 28.5194 41.2341 0.1805 0.0639812 0.42862 0.0335436
5722 2 23.8447 27.8094 48.3241 0.186121 0.0359953 -0.322486 0.130673
5723 2 18.4047 32.9094 41.5941 0.206263 1.14922 0.802745 -0.0192071
5724 2 19.2547 30.7894 47.1641 0.201106 2.05203 -0.296831 0.216439
5725 2 14.2747 31.4794 43.4941 0.187749 -0.772045 -0.352067 -1.05861
5726 2 22.6347 33.2494 44.2141 0.185475 -0.393811 -0.00301954 -0.0332396
5727 2 21.1847 29.5594 44.4541 0.196503 -0.744447 -0.329192 -0.441306
5728 2 17.2847 25.9694 48.7141 0.193742 0.366893 -0.114328 0.0286696
5729 2 14.8247 36.5994 41.0341 0.187953 -1.23537 0.0337504 0.0339385
5730 2 14.4647 30.9894 46.2541 0.193418 0.561653 -0.413336 0.789875
5731 2 18.4947 33.3694 37.9441 0.185431 1.45644 0.977472 0.978269
5732 2 24.5647 31.9394 48.1441 0.183183 0.124936 0.275271 0.110945
5733 2 19.2547 28.3494 44.6441 0.173813 -1.21256 -0.27689 1.47212
5734 2 19.9647 26.8794 46.4341 0.171167 0.33704 -0.725377 0.216931
5735 2 13.6947 27.1494 43.5141 0.198334 -0.100614 0.233897 -1.44322
5736 2 21.7547 26.0794 43.6841 0.177466 0.392017 1.8779 -1.00921
5737 2 21.2847 27.7894 49.0241 0.189554 0.0720809 0.182774 -0.116001
5738 2 13.8347 34.3294 38.1841 0.203751 -0.146566 0.597053 0.00256859
5739 2 24.5747 28.1094 44.8341 0.198005 2.70534 -1.03041 0.0528943
5740 2 23.8247 25.8394 38.6741 0.189016 1.0899 -0.904613 -1.35607
5741 2 19.8747 26.7094 38.5741 0.192865 0.551739 -0.285875 -1.97591
5742 2 21.5947 34.3194 45.6141 0.178035 0.441247 -0.710169 2.23728
5743 2 15.4147 36.5494 44.2141 0.189438 0.458863 -0.880796 0.139713
5744 2 19.9447 35.3194 41.8041 0.181809 0.703649 1.28919 0.431924
5745 2 19.1347 34.2894 44.8041 0.206108 2.27185 -0.0386736 -0.808144
5746 2 19.7347 35.6594 48.2641 0.190335 -0.341774 -0.0505344 -0.227402
5747 2 17.8947 25.9594 42.4541 0.197987 -0.0709984 0.23667 -0.23784
5748 2 14.3647 36.4594 38.9541 0.180732 -0.409007 0.667435 -0.854571
5749 2 17.4947 35.4394 44.5941 0.212012 -0.248143 -0.143979 -0.376996
5750 2 22.1747 30.4094 38.4441 0.183029 -0.544847 -0.0114378 -0.514617
5751 2 14.1747 36.7394 47.1541 0.204137 -0.0844955 -0.535814 0.289313
5752 2 18.4647 26.4594 40.0041 0.172569 0.70043 -0.752391 -0.238843
5753 2 21.7847 32.0894 37.5441 0.198756 -0.392359 0.54878 -0.176851
5754 2 23.1547 31.4494 45.3041 0.182267 -0.323117 -1.06152 1.28721
5755 2 14.3047 31.9194 49.7041 0.189127 0.480658 -0.368909 -0.146705
5756 2 13.5247 34.0494 47.9241 0.184944 -2.28753 -0.741703 -1.18018
5757 2 22.6347 37.2794 45.4841 0.190645 0.84353 0.202271 0.0266996
5758 2 13.3647 27.4494 40.6141 0.175966 0.878403 -1.05618 2.45225
5759 2 21.7847 27.8994 41.5041 0.202541 0.483841 0.40982 -0.157706
5760 2 13.5547 34.9794 44.5441 0.213347 0.787014 0.737345 -0.312238
5761 1 11.83 39.8941 39.5141 -0.418491 0.276234 0.657249 -0.200421
5762 1 5.36 43.3341 39.1441 -0.356018 0.340916 0.424434 -0.894545
5763 1 12.17 44.6741 40.0441 -0.375674 0.10856 -0.210892 -1.85849
5764 1 3.38 41.6141 42.1741 -0.401226 0.921391 -0.302077 -0.574746
5765 1 4.54 49.0641 49.2341 -0.352542 1.21087 0.715101 0.323279
5766 1 7.34 37.5141 39.5141 -0.375671 -0.527812 1.20548 -1.9529
5767 1 5.73 47.2341 47.6441 -0.42566 0.2607 0.0437717 0.366055
5768 1 5.32 48.5241 39.1641 -0.35229 -0.145277 -0.360966 0.00940799
5769 1 9.39 48.4741 38.4341 -0.384824 0.872287 -1.5421 -0.918619
5770 1 12.06 37.9741 46.2541 -0.432941 1.38586 0.30862 -1.86894
5771 1 5.01 45.0541 49.0741 -0.33121 1.05767 -0.092513 -0.578518
5772 1 3.64 40.5241 38.4141 -0.329397 0.448992 1.35168 0.0296347
5773 1 11.88 48.2341 42.0341 -0.392604 0.205205 1.05595 -2.45385
5774 1 3.88 45.3841 39.8441 -0.464722 -0.268867 0.355852 0.230333
5775 1 9.82 46.4941 47.5141 -0.365582 0.339111 1.66963 0.487174
5776 1 11 42.6441 42.5041 -0.319962 0.138446 0.0560888 1.91465
5777 1 0.97 41.4541 38.1741 -0.355457 0.745116 0.775197 -0.737678
5778 1 1.24 43.3241 42.0941 -0.374759 -0.193239 0.928602 -0.354911
5779 1 10.1 46.4241 40.6541 -0.354105 0.910801 0.645135 -2.49238
5780 1 8.39 43.0541 47.7241 -0.373467 0.806772 -0.606276 -1.83733
5781 1 8.06 42.0541 38.6341 -0.36779 0.70408 -2.90773 -0.607387
5782 1 3.23 40.6741 45.5941 -0.401808 2.13809 -0.397483 -0.157453
5783 1 5.02 43.5441 44.6241 -0.410387 -0.430356 0.366314 -0.264822
5784 1 3.94 47.8841 41.2841 -0.402417 0.433468 0.317396 -0.0584867
5785 1 6.25 41.8941 41.5441 -0.380616 -0.393505 -0.785017 -0.268545
5786 1 12.18 39.6841 48.4441 -0.382165 -0.847397 -0.742909 1.12307
5787 1 6.76 45.9041 41.4041 -0.403469 -1.14815 -0.761853 -0.55371
5788 1 5.87 43.1741 47.1241 -0.349098 -2.30359 0.637255 -0.272996
5789 1 2.18 44.2441 44.3241 -0.400385 -0.466077 0.744001 1.54709
5790 1 10.89 45.0241 44.1141 -0.350545 0.885493 0.570815 0.0352953
5791 1 8.03 41.6141 43.9041 -0.327247 0.482451 0.0230605 -0.0798279
5792 1 5.29 39.2541 48.8941 -0.42046 -1.16671 0.352011 0.519725
5793 1 1.53 49.4941 40.7841 -0.410573 0.411213 -0.955701 0.46778
5794 1 2.04 42.8241 47.0441 -0.307415 -0.567454 1.07236 -2.1071
5795 1 6.66 46.3841 38.5441 -0.337035 -1.61838 -1.0774 -0.670302
5796 1 11.75 43.5141 48.3441 -0.375509 0.109256 0.0675072 -0.490582
5797 1 6.11 40.4041 45.2941 -0.386894 0.529795 -0.929991 -1.62601
5798 1 8.22 38.7141 46.7641 -0.395922 -0.580868 0.677712 -0.139479
5799 1 1.31 39.3541 44.4241 -0.381657 1.03094 0.0207618 1.57359
5800 1 9.48 39.4441 43.2541 -0.386543 -0.466511 -1.80291 1.20751
5801 1 9.33 40.6741 48.3041 -0.415653 0.367202 -0.156991 0.177878
5802 1 1.31 45.8241 38.1441 -0.391658 -0.324857 -1.14427 0.312415
5803 1 11.25 40.8141 44.8441 -0.362951 -2.51327 0.883527 -0.600342
5804 1 11.7 37.6641 37.9341 -0.377211 -1.74599 -0.0721939 1.00749
5805 1 7.63 39.3741 37.6141 -0.388925 0.179795 0.446076 1.55229
5806 1 8.86 46.8541 44.7341 -0.387579 -0.3424 0.412212 -1.61059
5807 1 2.01 48.8741 44.2241 -0.409736 0.352726 -0.503202 0.166529
5808 1 8.02 48.6041 41.9941 -0.386294 -1.6736 -0.912931 -0.155648
5809 1 5.82 46.5141 45.0441 -0.322041 -1.62591 0.149885 0.939797
5810 1 8.11 48.5241 48.5541 -0.344452 0.36362 1.24919 -0.544022
5811 1 5.94 38.1741 43.2441 -0.430297 0.345498 0.00805326 0.132204
5812 1 1.88 48.9941 37.9741 -0.44761 -0.0496745 -0.645413 0.598473
5813 1 4.66 48.6141 44.0641 -0.350742 -0.301433 -0.466398 -1.15931
5814 1 10.32 43.5941 38.2241 -0.326364 0.996655 -0.777164 1.09362
5815 1 2.01 48.4041 47.6641 -0.382521 -0.874507 1.41968 0.876551
5816 1 5.36 39.3941 40.4741 -0.366244 -1.589 1.40301 -0.800801
5817 1 8.56 44.9241 49.5041 -0.416318 -0.455308 -0.0905472 0.3761
5818 1 10.51 43.1441 45.9941 -0.394248 0.641351 1.45689 0.242686
5819 1 2.37 43.5641 49.4341 -0.416528 -0.176649 0.565346 1.08134
5820 1 0.3 46.1041 47.3841 -0.378106 1.9013 0.678182 1.19026
5821 1 9.47 49.4641 44.9041 -0.329555 -1.4044 0.150388 0.698113
5822 1 1.41 39.6541 41.5041 -0.409848 -0.897558 2.03061 -1.61839
5823 1 9.69 41.0241 40.8941 -0.385426 -0.312375 -0.0177827 0.0084524
5824 1 0.75 46.5541 44.7241 -0.389395 -0.0507956 -1.95386 0.371128
5825 2 11.09 40.2041 40.0741 0.191006 0.242673 0.249593 -0.242683
5826 2 5.51 42.8441 39.9341 0.193885 0.173015 -0.778967 1.25701
5827 2 0.24 44.1341 40.6241 0.202655 0.689858 -0.383573 1.0842
5828 2 4.28 41.5241 41.7941 0.179041 -0.617776 0.498766 0.550815
5829 2 3.63 48.8941 49.0941 0.196223 -1.92571 -0.273387 -0.129467
5830 2 6.53 49.4041 39.3241 0.175621 -0.00356669 -0.0767482 0.048701
5831 2 5.37 46.4741 48.1841 0.192166 0.344564 0.250908 -0.896877
5832 2 5.74 47.6441 38.9741 0.184005 0.0441684 0.251747 0.082813
5833 2 8.71 48.4041 37.7441 0.17763 0.42258 -0.0590764 -0.677181
5834 2 0.27 38.3741 45.6041 0.173439 -1.12383 -0.989677 0.443693
5835 2 5.46 44.4141 48.4841 0.180688 0.237303 0.266779 0.0568971
5836 2 3.84 41.5041 38.3941 0.193773 -0.430979 -1.59742 0.0114865
5837 2 11.55 47.5241 41.4841 0.193318 -0.344378 -0.238346 -0.197776
5838 2 3 45.5041 39.4741 0.185158 0.135073 -0.0815619 -0.0868148
5839 2 9.53 47.3741 47.8941 0.183594 0.0382123 -1.11777 -0.571185
5840 2 11.18 42.1741 43.3841 0.169879 -0.438857 0.44109 -1.5133
5841 2 0.68 41.0941 49.7741 0.177371 -0.291534 -0.537377 -0.242265
5842 2 0.43 42.8441 42.2141 0.191063 -0.911687 -0.445059 0.172008
5843 2 9.51 46.8141 41.2741 0.198767 -0.777808 0.453436 0.709476
5844 2 9.08 43.2241 47.0141 0.183631 -0.873509 -0.131864 0.694444
5845 2 7.92 41.1641 38.1341 0.157297 -0.37078 1.9901 0.389995
5846 2 4.23 40.5541 45.5441 0.191194 -1.4239 0.140262 -0.00568597
5847 2 5.27 43.2341 45.5241 0.18637 0.231073 -0.075989 -0.406522
5848 2 4.44 48.2341 40.4741 0.186774 -0.369923 -0.593134 0.691906
5849 2 6.93 41.8941 42.2241 0.1968 0.140728 0.238381 0.137608
5850 2 11.88 38.9441 49.0841 0.177225 0.61359 1.15349 -0.980086
5851 2 6.79 45.8741 40.4241 0.175368 0.0995652 0.218335 0.449139
5852 2 5.62 42.3241 47.4641 0.221124 0.00677803 -0.644123 0.236344
5853 2 3.09 43.9941 44.3141 0.191092 1.4339 -0.115643 0.191259
5854 2 11.73 45.5541 44.1941 0.191114 -0.600412 -0.543247 -0.0195774
5855 2 8.4 40.7841 43.5141 0.180758 0.299539 0.121765 0.376332
5856 2 4.64 39.7041 49.4941 0.183435 0.774006 -0.148317 -0.517199
5857 2 0.74 49.0241 41.1941 0.193333 1.24459 0.48623 -0.165066
5858 2 1.1 42.6341 47.0541 0.198266 -0.394071 -0.607515 0.476843
5859 2 7.54 46.4441 38.1641 0.192116 -0.0556704 -0.517774 -0.239847
5860 2 11.36 43.5341 49.2341 0.192144 -0.194152 -0.0569296 0.0439459
5861 2 5.85 39.5441 44.8641 0.18362 0.497793 1.05763 0.321677
5862 2 8.81 39.3441 47.2241 0.182684 0.0118012 -0.0969196 -0.0594917
5863 2 2.17 39.7641 44.7941 0.202487 -1.14916 -0.170408 -0.334946
5864 2 10.1 39.8641 43.8841 0.181258 0.11293 -0.135655 -0.230622
5865 2 9.07 41.6241 48.2441 0.184906 -0.265488 -0.504604 0.00100047
5866 2 0.64 45.4641 38.7841 0.199679 0.509363 0.674755 -0.308529
5867 2 11.12 41.5341 45.4741 0.20226 -0.183433 0.403146 0.312282
5868 2 11.03 49.3641 37.9141 0.195342 0.754038 1.17487 0.0467456
5869 2 6.83 39.1741 49.5241 0.187672 -0.296897 0.227227 0.205484
5870 2 9.13 47.7841 44.5841 0.185571 -0.160237 0.106121 -0.443055
5871 2 1.76 49.7741 44.1341 0.185591 -1.18373 1.35733 -0.0950317
5872 2 7.37 49.2141 42.4141 0.175797 0.637231 -0.474339 -0.169111
5873 2 5.59 45.6241 44.7741 0.218995 0.0580363 -0.600407 -0.182318
5874 2 8.14 49.4541 48.1941 0.195424 -0.210893 -1.20675 0.44549
5875 2 5.48 37.3941 43.6541 0.188941 0.121995 0.408517 -0.0842032
5876 2 0.99 49.3241 37.7441 0.187844 0.420698 0.019961 0.498798
5877 2 4.54 48.2841 43.1241 0.18336 -0.0166795 0.130476 0.932361
5878 2 10.94 43.6241 38.9841 0.201455 -0.0271904 0.593445 -0.475502
5879 2 2.52 47.8841 47.0941 0.218254 1.17322 -0.879364 -1.42005
5880 2 4.74 39.7441 39.7541 0.184876 0.756433 -0.550793 1.19331
5881 2 8.84 45.6041 48.8941 0.185769 0.648322 0.253464 -0.371353
5882 2 10.89 43.3941 46.9141 0.177024 -0.149999 -0.450777 -1.36997
5883 2 2.15 43.3241 48.5141 0.183134 0.198192 0.153329 -0.208315
5884 2 0.49 46.3941 46.4641 0.170817 -0.195497 -0.175738 0.133224
5885 2 8.69 49.6741 45.4841 0.197811 0.86623 0.11805 -0.768202
5886 2 1.76 38.7741 41.4041 0.192692 -0.221644 -1.01347 -0.531427
5887 2 10.05 41.7741 41.4341 0.192316 -0.12598 -0.745354 -0.0156505
5888 2 1.44 45.8241 44.6541 0.197896 -0.576742 0.967128 -0.266633
5889 2 12.25 40.6541 39.0141 0.205744 -0.637695 -0.789967 0.707773
5890 2 6.27 43.5541 38.8941 0.19505 -0.288701 -0.189989 -0.310413
5891 2 11.5 45.1841 40.4741 0.211303 -0.832466 0.597942 0.813059
5892 2 2.96 40.7741 41.9441 0.180348 -0.533168 -0.0679281 0.0315739
5893 2 5.04 48.5041 48.6341 0.203951 0.12743 -0.381102 -0.585114
5894 2 7.6 49.7241 40.3641 0.186687 0.821729 -0.728604 2.61769
5895 2 5.94 47.0141 46.7041 0.201526 -0.668921 -0.412488 0.824099
5896 2 4.93 48.7941 38.2941 0.192241 -0.183067 0.0484364 -0.0612572
5897 2 8.92 49.0141 39.0241 0.182209 -0.842526 1.45769 1.60203
5898 2 12.07 38.6941 46.8741 0.171108 -0.388881 0.418148 1.32795
5899 2 4.17 44.6141 49.1341 0.187175 -1.2645 -0.132503 0.621876
5900 2 2.67 40.4241 38.3841 0.196793 0.335571 0.328216 0.0513079
5901 2 11.89 47.9241 42.8941 0.212694 0.132248 -0.756127 2.53347
5902 2 4.27 44.5641 39.4941 0.187744 0.0819048 0.0438761 -0.0144747
5903 2 10.8 46.5541 47.5141 0.189919 -0.381738 -0.312466 0.000711687
5904 2 10.68 43.5341 42.7741 0.199547 0.402557 -0.469573 -0.0890496
5905 2 1.51 42.2341 37.8641 0.18783 -0.395773 -0.206659 0.454004
5906 2 1.94 42.6941 41.9441 0.202921 1.0191 -0.676905 -0.246063
5907 2 10.02 46.9741 39.8041 0.193894 -0.0946733 -0.934599 1.59322
5908 2 8.41 43.7641 48.3741 0.181308 0.148164 0.82209 0.803429
5909 2 8.58 41.6241 39.3441 0.171345 -0.324549 0.687847 0.564236
5910 2 3.12 41.6141 45.7441 0.18604 -0.390217 -0.00360318 0.188224
5911 2 5.12 42.8741 43.9341 0.200548 0.113948 0.0927162 0.568106
5912 2 3.97 46.9141 41.2241 0.200318 -0.122325 0.404635 -0.363288
5913 2 6.17 40.9641 41.2341 0.180499 0.0639804 0.428621 0.0335442
5914 2 11.4 40.2541 48.3241 0.186121 0.0359945 -0.322488 0.130676
5915 2 5.96 45.3541 41.5941 0.206263 1.14919 0.802728 -0.0192024
5916 2 6.81 43.2341 47.1641 0.201106 2.05204 -0.296835 0.21644
5917 2 1.83 43.9241 43.4941 0.187749 -0.772041 -0.352063 -1.0586
5918 2 10.19 45.6941 44.2141 0.185475 -0.39383 -0.00296945 -0.0332318
5919 2 8.74 42.0041 44.4541 0.196503 -0.744449 -0.329181 -0.4413
5920 2 4.84 38.4141 48.7141 0.193742 0.366903 -0.114304 0.028676
5921 2 2.38 49.0441 41.0341 0.187954 -1.23532 0.0337034 0.0339639
5922 2 2.02 43.4341 46.2541 0.193418 0.561656 -0.413336 0.789874
5923 2 6.05 45.8141 37.9441 0.185432 1.45645 0.977509 0.978298
5924 2 12.12 44.3841 48.1441 0.183182 0.12487 0.275113 0.110974
5925 2 6.81 40.7941 44.6441 0.173813 -1.21259 -0.276922 1.47215
5926 2 7.52 39.3241 46.4341 0.171167 0.33707 -0.725399 0.216945
5927 2 1.25 39.5941 43.5141 0.198333 -0.100613 0.233889 -1.44319
5928 2 9.31 38.5241 43.6841 0.177467 0.392006 1.87785 -1.00919
5929 2 8.84 40.2341 49.0241 0.189554 0.0720645 0.182753 -0.115974
5930 2 1.39 46.7741 38.1841 0.203751 -0.146576 0.597055 0.00257459
5931 2 12.13 40.5541 44.8341 0.198004 2.70532 -1.03041 0.052889
5932 2 11.38 38.2841 38.6741 0.189016 1.08989 -0.904615 -1.35607
5933 2 7.43 39.1541 38.5741 0.192864 0.551753 -0.285862 -1.97593
5934 2 9.15 46.7641 45.6141 0.178035 0.441242 -0.71017 2.23727
5935 2 2.97 48.9941 44.2141 0.189437 0.45882 -0.880796 0.139713
5936 2 7.5 47.7641 41.8041 0.181809 0.703648 1.28919 0.431926
5937 2 6.69 46.7341 44.8041 0.206107 2.27185 -0.0386863 -0.808147
5938 2 7.29 48.1041 48.2641 0.190335 -0.341778 -0.0505133 -0.22741
5939 2 5.45 38.4041 42.4541 0.197987 -0.0710207 0.236677 -0.237867
5940 2 1.92 48.9041 38.9541 0.180733 -0.409007 0.667436 -0.854572
5941 2 5.05 47.8841 44.5941 0.212011 -0.248151 -0.143966 -0.376991
5942 2 9.73 42.8541 38.4441 0.183029 -0.544812 -0.011389 -0.514633
5943 2 1.73 49.1841 47.1541 0.204137 -0.0844596 -0.535921 0.289387
5944 2 6.02 38.9041 40.0041 0.17257 0.700392 -0.752362 -0.238813
5945 2 9.34 44.5341 37.5441 0.198756 -0.392332 0.548773 -0.176838
5946 2 10.71 43.8941 45.3041 0.182266 -0.323122 -1.06153 1.28722
5947 2 1.86 44.3641 49.7041 0.189127 0.480717 -0.369003 -0.146731
5948 2 1.08 46.4941 47.9241 0.184945 -2.28754 -0.741706 -1.18019
5949 2 10.19 49.7241 45.4841 0.190645 0.843581 0.202289 0.0267437
5950 2 0.92 39.8941 40.6141 0.175967 0.87841 -1.05619 2.45226
5951 2 9.34 40.3441 41.5041 0.202541 0.483857 0.409856 -0.157728
5952 2 1.11 47.4241 44.5441 0.213346 0.787001 0.737346 -0.312234
5953 1 24.2747 39.8941 39.5141 -0.418492 0.276233 0.657249 -0.200422
5954 1 17.8047 43.3341 39.1441 -0.356018 0.34091 0.424438 -0.894548
5955 1 24.6147 44.6741 40.0441 -0.375672 0.10856 -0.210891 -1.8585
5956 1 15.8247 41.6141 42.1741 -0.401225 0.921408 -0.302077 -0.574751
5957 1 16.9847 49.0641 49.2341 -0.352542 1.21087 0.715099 0.323277
5958 1 19.7847 37.5141 39.5141 -0.375671 -0.527803 1.20549 -1.95289
5959 1 18.1747 47.2341 47.6441 -0.425659 0.260701 0.0437671 0.36605
5960 1 17.7647 48.5241 39.1641 -0.35229 -0.145266 -0.360977 0.00941889
5961 1 21.8347 48.4741 38.4341 -0.384825 0.872303 -1.54212 -0.918634
5962 1 24.5047 37.9741 46.2541 -0.432941 1.38588 0.308628 -1.86896
5963 1 17.4547 45.0541 49.0741 -0.331209 1.05766 -0.0925033 -0.578508
5964 1 16.0847 40.5241 38.4141 -0.329397 0.449025 1.35169 0.0296371
5965 1 24.3247 48.2341 42.0341 -0.392605 0.205206 1.05595 -2.45385
5966 1 16.3247 45.3841 39.8441 -0.464722 -0.268818 0.355826 0.230342
5967 1 22.2647 46.4941 47.5141 -0.365581 0.339078 1.66962 0.487174
5968 1 23.4447 42.6441 42.5041 -0.319963 0.138445 0.0560898 1.91465
5969 1 13.4147 41.4541 38.1741 -0.355458 0.745126 0.775213 -0.737684
5970 1 13.6847 43.3241 42.0941 -0.374759 -0.193268 0.9286 -0.354908
5971 1 22.5447 46.4241 40.6541 -0.354105 0.9108 0.645135 -2.49238
5972 1 20.8347 43.0541 47.7241 -0.373467 0.806789 -0.606269 -1.83735
5973 1 20.5047 42.0541 38.6341 -0.36779 0.704096 -2.90774 -0.607366
5974 1 15.6747 40.6741 45.5941 -0.401808 2.13809 -0.397485 -0.157454
5975 1 17.4647 43.5441 44.6241 -0.410387 -0.430359 0.366318 -0.26482
5976 1 16.3847 47.8841 41.2841 -0.402417 0.433462 0.317396 -0.0584811
5977 1 18.6947 41.8941 41.5441 -0.380616 -0.393496 -0.785017 -0.268533
5978 1 24.6247 39.6841 48.4441 -0.382165 -0.847405 -0.742915 1.12307
5979 1 19.2047 45.9041 41.4041 -0.403469 -1.14818 -0.761873 -0.553702
5980 1 18.3147 43.1741 47.1241 -0.349098 -2.30356 0.637255 -0.272995
5981 1 14.6247 44.2441 44.3241 -0.400385 -0.466026 0.743989 1.5471
5982 1 23.3347 45.0241 44.1141 -0.350546 0.885563 0.570792 0.0352929
5983 1 20.4747 41.6141 43.9041 -0.327248 0.482415 0.0230615 -0.0798393
5984 1 17.7347 39.2541 48.8941 -0.42046 -1.16669 0.352025 0.519718
5985 1 13.9747 49.4941 40.7841 -0.410573 0.411218 -0.955707 0.467782
5986 1 14.4847 42.8241 47.0441 -0.307415 -0.567482 1.07235 -2.1071
5987 1 19.1047 46.3841 38.5441 -0.337036 -1.61844 -1.07742 -0.670292
5988 1 24.1947 43.5141 48.3441 -0.375509 0.109256 0.0674952 -0.490589
5989 1 18.5547 40.4041 45.2941 -0.386894 0.529781 -0.929994 -1.626
5990 1 20.6647 38.7141 46.7641 -0.395923 -0.580838 0.677693 -0.139463
5991 1 13.7547 39.3541 44.4241 -0.381657 1.03096 0.0207685 1.57359
5992 1 21.9247 39.4441 43.2541 -0.386544 -0.466518 -1.80291 1.20751
5993 1 21.7747 40.6741 48.3041 -0.415653 0.367199 -0.156991 0.177878
5994 1 13.7547 45.8241 38.1441 -0.391658 -0.32486 -1.14427 0.312416
5995 1 23.6947 40.8141 44.8441 -0.362951 -2.51333 0.883549 -0.600341
5996 1 24.1447 37.6641 37.9341 -0.377211 -1.74595 -0.0721591 1.00749
5997 1 20.0747 39.3741 37.6141 -0.388925 0.179826 0.446084 1.5523
5998 1 21.3047 46.8541 44.7341 -0.38758 -0.342416 0.412193 -1.6106
5999 1 14.4547 48.8741 44.2241 -0.409735 0.352682 -0.503207 0.166529
6000 1 20.4647 48.6041 41.9941 -0.386294 -1.67362 -0.912917 -0.155636
6001 1 18.2647 46.5141 45.0441 -0.322041 -1.62585 0.149898 0.939783
6002 1 20.5547 48.5241 48.5541 -0.344452 0.363544 1.24916 -0.54405
6003 1 18.3847 38.1741 43.2441 -0.430297 0.345463 0.00804476 0.13218
6004 1 14.3247 48.9941 37.9741 -0.44761 -0.0496884 -0.645409 0.598468
6005 1 17.1047 48.6141 44.0641 -0.350742 -0.301441 -0.466388 -1.15932
6006 1 22.7647 43.5941 38.2241 -0.326364 0.996668 -0.77716 1.09363
6007 1 14.4547 48.4041 47.6641 -0.382521 -0.874521 1.4197 0.876564
6008 1 17.8047 39.3941 40.4741 -0.366243 -1.58901 1.40302 -0.800805
6009 1 21.0047 44.9241 49.5041 -0.416318 -0.455274 -0.0905455 0.376103
6010 1 22.9547 43.1441 45.9941 -0.394248 0.641336 1.45688 0.242685
6011 1 14.8147 43.5641 49.4341 -0.416528 -0.176655 0.565352 1.08133
6012 1 12.7447 46.1041 47.3841 -0.378106 1.90129 0.678176 1.19026
6013 1 21.9147 49.4641 44.9041 -0.329556 -1.4043 0.150399 0.698129
6014 1 13.8547 39.6541 41.5041 -0.409848 -0.897553 2.03061 -1.61839
6015 1 22.1347 41.0241 40.8941 -0.385425 -0.312396 -0.0178125 0.00845038
6016 1 13.1947 46.5541 44.7241 -0.389396 -0.0508066 -1.95386 0.371128
6017 2 23.5347 40.2041 40.0741 0.191006 0.242674 0.249593 -0.242683
6018 2 17.9547 42.8441 39.9341 0.193885 0.173018 -0.778968 1.25702
6019 2 12.6847 44.1341 40.6241 0.202656 0.689858 -0.383573 1.0842
6020 2 16.7247 41.5241 41.7941 0.179041 -0.617794 0.498767 0.550821
6021 2 16.0747 48.8941 49.0941 0.196223 -1.92571 -0.273386 -0.129466
6022 2 18.9747 49.4041 39.3241 0.175621 -0.00357353 -0.0767522 0.0487009
6023 2 17.8147 46.4741 48.1841 0.192167 0.344569 0.250911 -0.89688
6024 2 18.1847 47.6441 38.9741 0.184005 0.0441666 0.251751 0.0828142
6025 2 21.1547 48.4041 37.7441 0.17763 0.42258 -0.0590743 -0.67718
6026 2 12.7147 38.3741 45.6041 0.17344 -1.12382 -0.989669 0.443682
6027 2 17.9047 44.4141 48.4841 0.180688 0.237318 0.266768 0.0568854
6028 2 16.2847 41.5041 38.3941 0.193773 -0.430984 -1.59743 0.0114864
6029 2 23.9947 47.5241 41.4841 0.193318 -0.344378 -0.238347 -0.197776
6030 2 15.4447 45.5041 39.4741 0.185158 0.135038 -0.0815598 -0.0868313
6031 2 21.9747 47.3741 47.8941 0.183594 0.0382026 -1.11776 -0.571181
6032 2 23.6247 42.1741 43.3841 0.169879 -0.438856 0.44109 -1.5133
6033 2 13.1247 41.0941 49.7741 0.177371 -0.291534 -0.537375 -0.242265
6034 2 12.8747 42.8441 42.2141 0.191063 -0.911669 -0.445048 0.172005
6035 2 21.9547 46.8141 41.2741 0.198767 -0.777807 0.453435 0.709475
6036 2 21.5247 43.2241 47.0141 0.18363 -0.873525 -0.131871 0.694456
6037 2 20.3647 41.1641 38.1341 0.157297 -0.370785 1.9901 0.389992
6038 2 16.6747 40.5541 45.5441 0.191193 -1.4239 0.14026 -0.00568647
6039 2 17.7147 43.2341 45.5241 0.186369 0.231072 -0.0759902 -0.406522
6040 2 16.8847 48.2341 40.4741 0.186774 -0.369922 -0.593135 0.691903
6041 2 19.3747 41.8941 42.2241 0.1968 0.140718 0.238381 0.137598
6042 2 24.3247 38.9441 49.0841 0.177225 0.613598 1.15349 -0.980091
6043 2 19.2347 45.8741 40.4241 0.175367 0.0995701 0.218337 0.449134
6044 2 18.0647 42.3241 47.4641 0.221124 0.00677845 -0.644122 0.236344
6045 2 15.5347 43.9941 44.3141 0.191091 1.43386 -0.115629 0.19126
6046 2 24.1747 45.5541 44.1941 0.191114 -0.600431 -0.543262 -0.0195799
6047 2 20.8447 40.7841 43.5141 0.180759 0.299549 0.121755 0.376329
6048 2 17.0847 39.7041 49.4941 0.183435 0.773995 -0.148313 -0.517191
6049 2 13.1847 49.0241 41.1941 0.193333 1.24459 0.486231 -0.165067
6050 2 13.5447 42.6341 47.0541 0.198265 -0.394044 -0.607509 0.476844
6051 2 19.9847 46.4441 38.1641 0.192116 -0.055628 -0.517771 -0.239866
6052 2 23.8047 43.5341 49.2341 0.192143 -0.19416 -0.0569316 0.04396
6053 2 18.2947 39.5441 44.8641 0.18362 0.497793 1.05763 0.321677
6054 2 21.2547 39.3441 47.2241 0.182684 0.0118055 -0.0969225 -0.0594903
6055 2 14.6147 39.7641 44.7941 0.202487 -1.14918 -0.170412 -0.334949
6056 2 22.5447 39.8641 43.8841 0.181258 0.112932 -0.135656 -0.230621
6057 2 21.5147 41.6241 48.2441 0.184906 -0.265488 -0.504606 0.00100064
6058 2 13.0847 45.4641 38.7841 0.199679 0.509366 0.674757 -0.308531
6059 2 23.5647 41.5341 45.4741 0.202259 -0.183426 0.40314 0.312278
6060 2 23.4747 49.3641 37.9141 0.195342 0.754004 1.17484 0.0467451
6061 2 19.2747 39.1741 49.5241 0.187672 -0.29692 0.22722 0.205475
6062 2 21.5747 47.7841 44.5841 0.185572 -0.160228 0.106139 -0.443058
6063 2 14.2047 49.7741 44.1341 0.185591 -1.18374 1.35734 -0.0950315
6064 2 19.8147 49.2141 42.4141 0.175796 0.637248 -0.474353 -0.169121
6065 2 18.0347 45.6241 44.7741 0.218995 0.058035 -0.60041 -0.182319
6066 2 20.5847 49.4541 48.1941 0.195424 -0.210884 -1.20675 0.445491
6067 2 17.9247 37.3941 43.6541 0.188941 0.122008 0.408529 -0.0842063
6068 2 13.4347 49.3241 37.7441 0.187844 0.42071 0.0199567 0.498802
6069 2 16.9847 48.2841 43.1241 0.18336 -0.0166755 0.130476 0.932363
6070 2 23.3847 43.6241 38.9841 0.201455 -0.0272082 0.593444 -0.475519
6071 2 14.9647 47.8841 47.0941 0.218254 1.17323 -0.879377 -1.42007
6072 2 17.1847 39.7441 39.7541 0.184876 0.756442 -0.550798 1.19331
6073 2 21.2847 45.6041 48.8941 0.185769 0.648314 0.253455 -0.371346
6074 2 23.3347 43.3941 46.9141 0.177024 -0.149991 -0.450774 -1.36997
6075 2 14.5947 43.3241 48.5141 0.183134 0.198195 0.153329 -0.208309
6076 2 12.9347 46.3941 46.4641 0.170817 -0.195495 -0.175737 0.133224
6077 2 21.1347 49.6741 45.4841 0.197812 0.866182 0.11806 -0.768172
6078 2 14.2047 38.7741 41.4041 0.192692 -0.221647 -1.01346 -0.531428
6079 2 22.4947 41.7741 41.4341 0.192316 -0.125967 -0.745336 -0.0156393
6080 2 13.8847 45.8241 44.6541 0.197897 -0.576732 0.967121 -0.266635
6081 2 24.6947 40.6541 39.0141 0.205745 -0.637694 -0.789967 0.707772
6082 2 18.7147 43.5541 38.8941 0.19505 -0.2887 -0.18999 -0.310412
6083 2 23.9447 45.1841 40.4741 0.211303 -0.832466 0.597941 0.81306
6084 2 15.4047 40.7741 41.9441 0.180349 -0.533166 -0.0679286 0.0315726
6085 2 17.4847 48.5041 48.6341 0.203951 0.127429 -0.3811 -0.585113
6086 2 20.0447 49.7241 40.3641 0.186687 0.821727 -0.728603 2.61768
6087 2 18.3847 47.0141 46.7041 0.201526 -0.668925 -0.412487 0.824107
6088 2 17.3747 48.7941 38.2941 0.192241 -0.183076 0.0484409 -0.0612681
6089 2 21.3647 49.0141 39.0241 0.18221 -0.842539 1.4577 1.60205
6090 2 24.5147 38.6941 46.8741 0.171108 -0.388883 0.418147 1.32795
6091 2 16.6147 44.6141 49.1341 0.187175 -1.2645 -0.132502 0.621879
6092 2 15.1147 40.4241 38.3841 0.196793 0.335544 0.328215 0.0513071
6093 2 24.3347 47.9241 42.8941 0.212694 0.132247 -0.756127 2.53347
6094 2 16.7147 44.5641 39.4941 0.187744 0.0818922 0.0438964 -0.014468
6095 2 23.2447 46.5541 47.5141 0.18992 -0.381695 -0.312468 0.000709485
6096 2 23.1247 43.5341 42.7741 0.199547 0.402558 -0.469574 -0.0890503
6097 2 13.9547 42.2341 37.8641 0.187831 -0.395784 -0.206674 0.454008
6098 2 14.3847 42.6941 41.9441 0.202921 1.01911 -0.676914 -0.246066
6099 2 22.4647 46.9741 39.8041 0.193894 -0.0946739 -0.934599 1.59322
6100 2 20.8547 43.7641 48.3741 0.181308 0.148162 0.822089 0.80343
6101 2 21.0247 41.6241 39.3441 0.171346 -0.324562 0.687859 0.564218
6102 2 15.5647 41.6141 45.7441 0.18604 -0.39022 -0.003599 0.188224
6103 2 17.5647 42.8741 43.9341 0.200548 0.113951 0.0927126 0.568103
6104 2 16.4147 46.9141 41.2241 0.200318 -0.122322 0.404637 -0.36329
6105 2 18.6147 40.9641 41.2341 0.180499 0.0639815 0.42862 0.0335435
6106 2 23.8447 40.2541 48.3241 0.186121 0.0359964 -0.322486 0.130674
6107 2 18.4047 45.3541 41.5941 0.206263 1.14922 0.802746 -0.019206
6108 2 19.2547 43.2341 47.1641 0.201106 2.05202 -0.296836 0.21644
6109 2 14.2747 43.9241 43.4941 0.187749 -0.772044 -0.352065 -1.05861
6110 2 22.6347 45.6941 44.2141 0.185476 -0.393877 -0.00293075 -0.0332272
6111 2 21.1847 42.0041 44.4541 0.196504 -0.744423 -0.329171 -0.441285
6112 2 17.2847 38.4141 48.7141 0.193743 0.366889 -0.114321 0.0286734
6113 2 14.8247 49.0441 41.0341 0.187954 -1.23532 0.0337064 0.0339619
6114 2 14.4647 43.4341 46.2541 0.193418 0.561658 -0.413335 0.789873
6115 2 18.4947 45.8141 37.9441 0.185432 1.45646 0.977518 0.978307
6116 2 24.5647 44.3841 48.1441 0.183182 0.124879 0.275127 0.110967
6117 2 19.2547 40.7941 44.6441 0.173814 -1.21258 -0.276917 1.47214
6118 2 19.9647 39.3241 46.4341 0.171168 0.337037 -0.725376 0.21693
6119 2 13.6947 39.5941 43.5141 0.198334 -0.100614 0.233889 -1.44319
6120 2 21.7547 38.5241 43.6841 0.177467 0.392011 1.87786 -1.00919
6121 2 21.2847 40.2341 49.0241 0.189554 0.072065 0.182754 -0.115975
6122 2 13.8347 46.7741 38.1841 0.203751 -0.146575 0.597056 0.00257473
6123 2 24.5747 40.5541 44.8341 0.198004 2.70538 -1.03042 0.0528912
6124 2 23.8247 38.2841 38.6741 0.189016 1.08989 -0.904616 -1.35607
6125 2 19.8747 39.1541 38.5741 0.192865 0.551745 -0.285865 -1.97592
6126 2 21.5947 46.7641 45.6141 0.178035 0.441246 -0.710169 2.23728
6127 2 15.4147 48.9941 44.2141 0.189437 0.458864 -0.880792 0.139713
6128 2 19.9447 47.7641 41.8041 0.181809 0.70365 1.28919 0.431925
6129 2 19.1347 46.7341 44.8041 0.206107 2.2718 -0.038697 -0.808133
6130 2 19.7347 48.1041 48.2641 0.190335 -0.341714 -0.0504881 -0.227385
6131 2 17.8947 38.4041 42.4541 0.197987 -0.0709984 0.236671 -0.237839
6132 2 14.3647 48.9041 38.9541 0.180732 -0.409007 0.667436 -0.854572
6133 2 17.4947 47.8841 44.5941 0.212012 -0.248143 -0.143975 -0.376985
6134 2 22.1747 42.8541 38.4441 0.183029 -0.544808 -0.0113867 -0.514632
6135 2 14.1747 49.1841 47.1541 0.204137 -0.084457 -0.535927 0.28939
6136 2 18.4647 38.9041 40.0041 0.17257 0.700394 -0.752363 -0.238815
6137 2 21.7847 44.5341 37.5441 0.198756 -0.392357 0.54878 -0.176849
6138 2 23.1547 43.8941 45.3041 0.182266 -0.323118 -1.06153 1.28721
6139 2 14.3047 44.3641 49.7041 0.189126 0.480721 -0.369009 -0.146731
6140 2 13.5247 46.4941 47.9241 0.184944 -2.28753 -0.741703 -1.18018
6141 2 22.6347 49.7241 45.4841 0.190645 0.843527 0.202269 0.0266984
6142 2 13.3647 39.8941 40.6141 0.175966 0.878408 -1.05619 2.45226
6143 2 21.7847 40.3441 41.5041 0.202541 0.483864 0.409866 -0.157739
6144 2 13.5547 47.4241 44.5441 0.213347 0.787005 0.73735 -0.312234
ITEM: TIMESTEP
1
ITEM: NUMBER OF ATOMS
6144
ITEM: BOX BOUNDS pp pp pp
0.0000000000000000e+00 2.4889399999999998e+01
0.0000000000000000e+00 4.9778799999999997e+01
0.0000000000000000e+00 4.9778799999999997e+01
ITEM: ATOMS id type x y z q fx fy fz
1 1 11.8301 2.5609 2.17976 -0.420803 0.551329 0.732519 -0.404633
2 1 5.35877 6.00258 1.8071 -0.353304 0.52186 0.302781 -0.675825
3 1 12.1676 7.33705 2.70757 -0.377216 0.645019 -0.717638 -1.69937
4 1 3.37632 4.27474 4.83864 -0.402151 1.28047 0.110356 -0.504044
5 1 4.54104 11.7317 11.8987 -0.350622 0.932904 0.715382 0.362168
6 1 7.33565 0.182933 2.18275 -0.374386 -0.0829493 1.10392 -1.11454
7 1 5.72637 9.90172 10.3057 -0.426315 0.0395176 -0.213142 0.834402
8 1 5.31967 11.1908 1.8291 -0.353057 0.0956319 -0.646444 0.31837
9 1 9.39064 11.1386 1.09809 -0.387404 0.228468 -0.659447 0.169322
10 1 12.059 0.638379 8.91908 -0.431236 1.30534 0.352583 -1.74648
11 1 5.00566 7.71771 11.7444 -0.329407 1.04818 0.374017 -0.342794
12 1 3.64049 3.18977 1.07671 -0.33134 0.620653 1.33326 0.0484402
13 1 11.8799 10.9041 4.70439 -0.396329 -0.0608916 0.299164 -2.09632
14 1 3.8798 8.05124 2.51156 -0.465657 -0.816787 0.00820188 -0.291654
15 1 9.82201 9.16099 10.1805 -0.363512 0.936821 2.01239 0.611886
16 1 11.002 5.31152 5.17021 -0.319858 0.118641 -0.0408048 1.88604
17 1 0.974377 4.11931 0.838913 -0.358272 0.916388 1.03812 -0.474814
18 1 1.24152 5.99346 4.7586 -0.377395 0.603961 1.5081 -0.480874
19 1 10.1008 9.08707 3.31668 -0.350986 0.789803 0.468674 -1.82139
20 1 8.39131 5.71715 10.3901 -0.374455 0.817174 -0.155505 -1.43163
21 1 8.05897 4.72312 1.30035 -0.365328 0.958171 -2.92835 -0.220646
22 1 3.22762 3.33727 8.26182 -0.401113 2.51728 0.177822 -0.0867766
23 1 5.01975 6.20649 7.28744 -0.409825 -0.446308 0.560184 0.0449879
24 1 3.93889 10.5503 3.94904 -0.40276 0.354697 0.724173 0.0477423
25 1 6.24926 4.55732 4.21038 -0.382206 -0.55385 -0.903812 -0.476074
26 1 12.1774 2.35117 11.1104 -0.385195 -1.40314 -0.601692 1.12526
27 1 6.75765 8.56839 4.07179 -0.403618 -0.918748 -0.608644 -0.732095
28 1 5.86899 5.84164 9.79246 -0.350829 -2.05399 0.16795 -0.0899336
29 1 2.18023 6.91033 6.98982 -0.399779 0.0696782 0.92985 2.22307
30 1 10.8911 7.68831 6.77768 -0.353005 1.17872 0.764489 0.0528007
31 1 8.02661 4.27896 6.56817 -0.329452 0.685268 -0.307262 -0.210326
32 1 5.28926 1.91713 11.5586 -0.421843 -1.17005 -0.179082 0.221706
33 1 1.53152 12.1607 3.45345 -0.40449 0.685242 -0.999438 0.526279
34 1 2.03966 5.48996 9.71002 -0.305153 -1.06954 0.678735 -1.76375
35 1 6.66023 9.05516 1.20957 -0.335083 -1.9178 -1.22162 -0.735641
36 1 11.752 6.17628 11.01 -0.377524 0.254622 0.232742 -0.668695
37 1 6.10998 3.07273 7.95918 -0.380735 0.292367 -1.44004 -1.60792
38 1 8.22029 1.37905 9.43051 -0.398149 -0.987403 1.10927 -0.309007
39 1 1.31059 2.01374 7.09272 -0.380501 0.924935 0.254751 0.573832
40 1 9.48127 2.10927 5.91848 -0.385333 -0.522681 -1.46805 0.907572
41 1 9.3319 3.3391 10.9703 -0.412063 0.320929 -0.0288233 0.217235
42 1 1.30928 8.49089 0.807128 -0.388437 -0.369726 -0.987802 0.387008
43 1 11.2492 3.4791 7.50886 -0.361393 -2.54864 0.768751 -0.768086
44 1 11.6997 0.329835 0.600242 -0.37841 -1.65559 -0.321286 0.738533
45 1 7.63034 2.03918 0.280796 -0.39193 0.0125523 0.423802 1.29069
46 1 8.85802 9.52324 7.40247 -0.387509 -0.423364 0.243304 -1.71099
47 1 2.0109 11.5381 6.89138 -0.40918 1.16197 -0.0905543 0.114143
48 1 8.02236 11.272 4.65649 -0.383096 -1.87054 -1.20154 -0.1773
49 1 5.8247 9.17794 7.71068 -0.321704 -2.08189 -0.412484 0.8461
50 1 8.11141 11.1894 11.22 -0.341419 0.200032 1.34482 -0.681478
51 1 5.93866 0.84103 5.91293 -0.422905 0.319662 0.433254 -0.389244
52 1 1.88055 11.6588 0.640084 -0.447524 0.249918 -0.784378 1.0246
53 1 4.66115 11.2794 6.72651 -0.345884 -0.00500426 -0.622527 -0.300824
54 1 10.3223 6.25995 0.888763 -0.326416 0.881668 -1.03169 1.32012
55 1 2.00807 11.0728 10.3306 -0.379156 -0.729641 1.48078 0.33818
56 1 5.35979 2.06126 3.14198 -0.36601 -1.71179 1.56264 -0.471868
57 1 8.55946 7.59186 12.1672 -0.415631 -0.262541 -0.212531 0.444824
58 1 10.5104 5.81068 8.65879 -0.394207 0.686934 1.39639 0.344015
59 1 2.36851 6.22653 12.1008 -0.417012 -0.365869 0.723402 1.03137
60 1 0.298579 8.77133 10.0459 -0.381348 1.75154 0.712972 0.772296
61 1 9.46732 12.1306 7.56847 -0.328331 -1.49852 0.370763 1.27398
62 1 1.40936 2.32241 4.17086 -0.409276 -0.75667 1.73887 -1.46091
63 1 9.6901 3.6911 3.55728 -0.384357 -0.180564 0.201664 -0.0909848
64 1 0.748656 9.21766 7.39249 -0.384071 0.103498 -1.247 0.232876
65 2 11.0974 2.86422 2.74713 0.191832 0.143523 0.343838 -0.214348
66 2 5.50824 5.49577 2.59445 0.193182 0.165433 -0.562833 0.933214
67 2 0.22801 6.78838 3.29559 0.200757 0.504775 -0.151712 0.824385
68 2 4.28137 4.18707 4.46214 0.178703 -0.730296 0.523319 0.602366
69 2 3.6272 11.5617 11.7551 0.196354 -1.69237 -0.234612 -0.106601
70 2 6.53727 12.0654 1.98718 0.175817 -0.0809057 -0.0943515 0.0387122
71 2 5.35284 9.13842 10.8546 0.191479 0.515104 0.544708 -1.13448
72 2 5.73877 10.3063 1.63243 0.183903 -0.0145858 0.396478 0.152074
73 2 8.71313 11.0661 0.410974 0.176473 0.323888 -0.0781511 -0.800198
74 2 0.275085 1.03132 8.27035 0.173678 -1.17979 -0.959552 0.512934
75 2 5.45137 7.09307 11.1516 0.182943 0.439085 -0.0480343 -0.206909
76 2 3.82806 4.16716 1.0593 0.192816 -0.260413 -1.40802 -0.00527329
77 2 11.5339 10.1823 4.15592 0.189215 -0.110423 0.254165 0.173814
78 2 2.97979 8.16703 2.14118 0.180731 0.910397 -0.182137 0.220776
79 2 9.534 10.0472 10.5649 0.181022 0.0246086 -1.3378 -0.669018
80 2 11.1871 4.83787 6.04742 0.170694 -0.468351 0.477574 -1.50193
81 2 0.67868 3.76565 12.4323 0.175187 -0.159223 -0.376313 0.141423
82 2 0.445153 5.52706 4.87394 0.193372 -1.83657 -0.990008 0.31695
83 2 9.49966 9.47372 3.93376 0.198978 -0.635135 0.335035 0.596667
84 2 9.07558 5.88203 9.67178 0.183671 -0.863759 -0.112955 0.756354
85 2 7.92804 3.8304 0.81477 0.157879 -0.435911 1.86186 0.237058
86 2 4.24166 3.22125 8.21304 0.189115 -1.85711 0.18082 0.00557685
87 2 5.27418 5.90407 8.19255 0.186673 0.20292 -0.0691722 -0.500204
88 2 4.43415 10.9105 3.1477 0.187204 -0.296449 -0.528737 0.568267
89 2 6.92284 4.57003 4.89267 0.198061 0.244279 0.176236 0.224807
90 2 11.8808 1.58879 11.7415 0.175181 0.638737 1.45751 -1.10207
91 2 6.79374 8.54757 3.08806 0.175602 0.0423217 0.185901 0.617568
92 2 5.61223 4.98549 10.1438 0.22044 0.198249 -0.0980655 0.0155688
93 2 3.09021 6.64507 6.97887 0.190833 1.21478 -0.0525339 0.183451
94 2 11.7393 8.22413 6.86239 0.189772 -0.922431 -0.706609 -0.0544244
95 2 8.39824 3.44046 6.17024 0.178958 0.157188 0.465747 0.539629
96 2 4.64948 2.36356 12.1576 0.183451 0.546835 0.00950283 -0.321234
97 2 0.74389 11.6996 3.86641 0.193457 1.07404 0.412912 -0.130911
98 2 1.08909 5.30105 9.72673 0.19742 0.0967772 -0.501507 0.467116
99 2 7.54049 9.11551 0.841662 0.192798 0.168472 -0.477392 -0.339059
100 2 11.358 6.18056 11.8969 0.193306 -0.185684 0.0441875 0.090602
101 2 5.84993 2.2009 7.5283 0.18275 0.582119 1.40804 0.47881
102 2 8.81114 2.01087 9.89519 0.181998 -0.149486 -0.157296 -0.171134
103 2 2.1706 2.43148 7.45189 0.20173 -1.1296 -0.175043 -0.321596
104 2 10.0956 2.53546 6.5461 0.18281 0.183746 -0.15072 -0.132919
105 2 9.07078 4.29254 10.9178 0.184041 -0.22482 -0.588919 -0.0540486
106 2 0.641342 8.12907 1.44975 0.198718 0.523673 0.63876 -0.333163
107 2 11.1195 4.19052 8.14102 0.202676 -0.235009 0.579146 0.463612
108 2 11.0382 12.0247 0.575588 0.198362 0.63802 1.17524 0.119172
109 2 6.83607 1.83643 12.1926 0.18889 -0.550832 0.151105 0.00570165
110 2 9.14387 10.4442 7.26307 0.185917 -0.144149 0.391534 -0.575656
111 2 1.7601 12.4457 6.80469 0.183614 -1.01544 0.975298 -0.0476971
112 2 7.36999 11.8732 5.08595 0.175108 0.656485 -0.44042 -0.181716
113 2 5.57024 8.28343 7.42616 0.220226 0.325838 0.0435041 -0.0134254
114 2 8.13938 12.119 10.844 0.194575 -0.21779 -1.37372 0.552477
115 2 5.47578 0.078251 6.32187 0.190816 -0.0478609 0.04525 0.0961995
116 2 0.99901 11.9901 0.409605 0.188712 0.131848 0.12156 0.426128
117 2 4.54396 10.9605 5.79781 0.185531 -0.0515842 -0.104823 0.439076
118 2 10.9401 6.28087 1.6553 0.200761 -0.0686199 0.64739 -0.598979
119 2 2.53097 10.5581 9.75486 0.216099 0.916975 -0.620912 -1.1129
120 2 4.74172 2.42119 2.4315 0.186784 0.687034 -0.565065 1.04563
121 2 8.83741 8.26934 11.5504 0.186201 0.667643 0.188114 -0.294176
122 2 10.8955 6.06892 9.57608 0.176217 -0.206446 -0.513895 -1.40127
123 2 2.1507 5.98116 11.1768 0.18339 0.234619 0.237122 -0.0390272
124 2 0.491653 9.05927 9.11649 0.169798 -0.249011 -0.266126 0.439208
125 2 8.68434 12.3475 8.16813 0.195817 1.30623 0.00916809 -1.10973
126 2 1.75449 1.43455 4.07821 0.192406 -0.305057 -0.800641 -0.529616
127 2 10.0563 4.43601 4.10387 0.19165 -0.14822 -0.76865 -0.0597219
128 2 1.43771 8.49524 7.31502 0.197531 -0.47666 0.807474 -0.246207
129 2 12.2594 3.32151 1.67323 0.206741 -0.788923 -0.936502 0.872217
130 2 6.27013 6.22936 1.5525 0.194897 -0.469079 -0.258487 -0.2024
131 2 11.5112 7.86 3.13031 0.211473 -1.04366 0.766129 0.986244
132 2 2.96521 3.44179 4.60926 0.182238 -0.757085 -0.491486 -0.07831
133 2 5.04316 11.174 11.3006 0.204021 0.153743 -0.419746 -0.634042
134 2 7.60315 12.3852 3.03976 0.185314 0.606138 -0.558501 1.99298
135 2 5.92898 9.68276 9.36926 0.201895 -0.604146 -0.481423 0.639547
136 2 4.92673 11.4549 0.972206 0.192046 -0.347833 0.208225 -0.412978
137 2 8.89594 11.6932 1.69731 0.176256 -0.104985 0.602194 0.626522
138 2 12.0591 1.36474 9.53377 0.170595 -0.394181 0.360305 1.30525
139 2 4.16989 7.27979 11.8141 0.188844 -1.44772 -0.252453 0.631102
140 2 2.67637 3.10719 1.03569 0.195718 -0.0231691 0.160478 0.0604639
141 2 11.8998 10.5871 5.57367 0.208965 0.138853 -0.5132 1.80597
142 2 4.27528 7.22358 2.14817 0.185052 -0.126411 0.49271 0.209703
143 2 10.8163 9.24103 10.1844 0.186116 -0.969884 -0.462715 -0.0240532
144 2 10.6648 6.19451 5.44012 0.200225 0.438748 -0.440937 -0.0703265
145 2 1.51246 4.91204 0.540444 0.187687 -0.503527 -0.397327 0.425477
146 2 1.93685 5.36054 4.61571 0.203909 1.12403 -0.74479 -0.271592
147 2 10.0209 9.63132 2.48341 0.195627 -0.112449 -0.621268 1.04385
148 2 8.42384 6.43517 11.0543 0.178746 0.109267 0.379604 0.344864
149 2 8.58865 4.29746 2.0172 0.170192 -0.508519 0.834018 0.345147
150 2 3.12008 4.2915 8.40463 0.182942 -0.318273 -0.625397 0.0977471
151 2 5.11384 5.5375 6.60339 0.201674 0.161646 -0.105658 0.383506
152 2 3.97679 9.59138 3.87025 0.200591 -0.129692 -0.0810979 -0.347679
153 2 6.1735 3.62508 3.8916 0.180641 0.111015 0.596365 0.15606
154 2 11.3821 2.92665 10.9878 0.183668 0.554603 -0.760861 0.264443
155 2 5.96329 8.01897 4.26039 0.207485 0.971556 0.684552 -0.0157925
156 2 6.81797 5.9004 9.82883 0.199787 1.61625 -0.357962 0.24257
157 2 1.82499 6.59083 6.18018 0.189373 -1.04994 -0.601665 -1.731
158 2 10.1882 8.35612 6.87394 0.185 -0.343347 -0.0170066 -0.0164398
159 2 8.73935 4.66193 7.12169 0.195343 -0.777403 -0.342485 -0.479573
160 2 4.82632 1.07402 11.373 0.192487 0.598681 0.272682 0.119522
161 2 2.37702 11.7045 3.72482 0.186877 -1.3333 0.140607 -0.086058
162 2 2.01873 6.08237 8.92017 0.194606 0.556401 -0.114621 0.476697
163 2 6.05478 8.48401 0.594504 0.185252 1.52958 1.0698 1.13334
164 2 12.1194 7.05248 10.8027 0.183336 -0.009842 0.0427796 0.245521
165 2 6.816 3.44687 7.319 0.174316 -1.08947 -0.129435 1.29508
166 2 7.50167 1.99078 9.09205 0.167938 0.890957 -1.07671 0.491427
167 2 1.23658 2.25176 6.16342 0.196178 -0.0125102 -0.00236102 -0.480076
168 2 9.30668 1.198 6.33487 0.180881 0.377909 1.5649 -0.796505
169 2 8.83958 2.90398 11.6917 0.1888 0.089465 0.146647 -0.118027
170 2 1.38387 9.44318 0.861621 0.202887 -0.124726 0.473489 -0.0383472
171 2 12.1256 3.21223 7.51134 0.198113 2.79488 -1.09319 0.0517738
172 2 11.3939 0.950528 1.33382 0.190247 0.924826 -0.775419 -1.12437
173 2 7.42757 1.82288 1.23706 0.192832 0.527127 -0.318467 -1.8457
174 2 9.14695 9.43351 8.27936 0.178454 0.480713 -0.82219 2.45556
175 2 2.99463 11.6556 6.87508 0.187196 -0.508264 -0.946065 0.161567
176 2 7.49972 10.4201 4.47785 0.180305 0.870329 1.55156 0.447966
177 2 6.68828 9.40794 7.46834 0.207433 2.4621 -0.0884214 -0.893326
178 2 7.28493 10.7653 10.9403 0.189588 -0.171495 0.028362 -0.194359
179 2 5.44794 1.06741 5.11247 0.197163 0.133452 0.166038 0.0927764
180 2 1.91957 11.5677 1.62853 0.180175 -0.424311 0.709393 -1.1934
181 2 5.0729 10.5468 7.26592 0.212368 -0.524045 0.189248 -0.716361
182 2 9.72217 5.52295 1.12099 0.181395 -0.396138 0.207964 -0.646982
183 2 1.72723 11.8586 9.81185 0.201672 0.0213855 -0.863581 0.528439
184 2 6.01729 1.57352 2.6774 0.174831 0.894457 -0.911255 -0.438508
185 2 9.34664 7.20347 0.209461 0.198194 -0.521723 0.556755 -0.212622
186 2 10.7196 6.54864 7.96538 0.182315 -0.354235 -0.953234 1.22545
187 2 1.85097 7.02967 12.3738 0.188787 0.63716 -0.57725 -0.255169
188 2 1.06496 9.17035 10.5856 0.18526 -2.0861 -0.677319 -1.08045
189 2 10.1999 12.3884 8.14755 0.188405 0.525428 0.107275 -0.204513
190 2 0.917975 2.55686 3.2876 0.176798 0.817177 -1.00428 2.29003
191 2 9.34729 3.0092 4.15995 0.202715 0.367451 0.23958 -0.00503422
192 2 1.11957 10.0962 7.20387 0.212485 0.532502 0.239156 -0.190861
193 1 24.275 2.56058 2.17991 -0.418289 -0.097003 0.500718 0.1261
194 1 17.8089 6.00173 1.80816 -0.359349 -0.795651 0.830896 -1.62064
195 1 24.6112 7.33903 2.70667 -0.374664 0.000801174 -0.18254 -1.3866
196 1 15.8269 4.27818 4.83733 -0.399652 0.538195 -0.194116 -0.391303
197 1 16.9844 11.7304 11.9009 -0.356199 1.44287 0.396573 -0.0169983
198 1 19.7842 0.178573 2.18145 -0.379918 -0.746148 1.0537 -2.0821
199 1 18.1729 9.89624 10.3098 -0.423372 0.563531 0.304611 -0.422247
200 1 17.7634 11.1868 1.82907 -0.349593 -0.0458232 -0.366254 0.278115
201 1 21.8376 11.1429 1.09869 -0.381296 0.613003 -1.57845 -1.17734
202 1 24.5037 0.639714 8.92204 -0.432618 1.41393 0.264469 -1.91014
203 1 17.4554 7.72218 11.7386 -0.33371 1.09791 -0.215742 -0.597042
204 1 16.0874 3.19048 1.08028 -0.327928 0.343839 0.884006 0.034176
205 1 24.3251 10.9011 4.70007 -0.389173 0.0909219 0.5176 -1.89996
206 1 16.3272 8.05002 2.50889 -0.463123 -0.0205749 0.0845691 0.167414
207 1 22.2621 9.16127 10.1788 -0.367095 0.772852 1.25843 0.249736
208 1 23.4448 5.30889 5.16918 -0.321875 0.0773726 0.128414 1.7819
209 1 13.4162 4.1202 0.839863 -0.352339 0.606092 0.549284 -1.20865
210 1 13.6832 5.98724 4.75923 -0.372274 0.066073 0.448489 -0.449688
211 1 22.5456 9.09069 3.32107 -0.35326 0.791211 0.974381 -2.85591
212 1 20.8327 5.71861 10.3893 -0.37031 0.720368 -0.729209 -1.85869
213 1 20.5056 4.72226 1.29887 -0.371585 0.652887 -3.05931 -0.674978
214 1 15.6756 3.34113 8.25794 -0.39978 1.85287 -0.327063 -0.141584
215 1 17.4648 6.20935 7.29134 -0.404365 -0.500209 0.285294 -0.751834
216 1 16.3851 10.5495 3.94806 -0.402807 0.393122 -0.0305093 -0.0674116
217 1 18.6943 4.56052 4.20724 -0.382847 -0.267553 -0.985731 -0.171012
218 1 24.6243 2.35068 11.11 -0.381496 -0.970819 -0.748152 1.19312
219 1 19.2047 8.56938 4.07335 -0.40521 -0.978439 -0.678682 -1.2364
220 1 18.315 5.83495 9.78696 -0.351503 -2.10123 0.635088 -0.248617
221 1 14.6274 6.91161 6.98878 -0.402023 0.439598 0.543787 1.6114
222 1 23.334 7.68645 6.78005 -0.355735 0.84572 0.882601 0.0423202
223 1 20.475 4.28097 6.5679 -0.323007 0.683343 0.740422 0.480087
224 1 17.7347 1.92069 11.5587 -0.419277 -1.47983 0.659446 0.772362
225 1 13.9724 12.1608 3.44995 -0.411296 1.26159 -0.609111 0.148968
226 1 14.4856 5.49078 9.71005 -0.313586 -0.454501 0.68483 -1.64913
227 1 19.1051 9.04843 1.20777 -0.336546 -1.74095 -0.985588 -0.434405
228 1 24.1944 6.18093 11.013 -0.373963 0.0293289 -0.173348 -0.502025
229 1 18.5509 3.06866 7.95929 -0.387155 0.617183 -0.868682 -1.74618
230 1 20.663 1.37621 9.42906 -0.393991 -0.436078 0.59228 -0.039875
231 1 13.7543 2.01696 7.08897 -0.382193 1.10154 0.109552 1.48119
232 1 21.9256 2.1095 5.92076 -0.392574 -0.3171 -1.58275 1.30585
233 1 21.7769 3.34091 10.9724 -0.41382 0.378834 -0.192805 0.167559
234 1 13.7531 8.49054 0.811512 -0.394086 -0.320678 -1.59172 0.271281
235 1 23.6944 3.48044 7.51069 -0.362951 -2.67991 1.12944 -0.407649
236 1 24.146 0.331397 0.603374 -0.380458 -1.88754 -0.111751 1.06421
237 1 20.0765 2.03989 0.28049 -0.389157 0.230496 0.462011 1.54013
238 1 21.3084 9.51995 7.39893 -0.388306 -0.236033 0.538944 -1.37961
239 1 14.4552 11.5374 6.8904 -0.407014 0.225748 -0.566826 0.1865
240 1 20.4619 11.2669 4.66194 -0.389049 -1.56814 -0.791724 -0.101109
241 1 18.2648 9.17737 7.71036 -0.319343 -2.26462 -0.357664 0.981052
242 1 20.556 11.1872 11.219 -0.346333 -0.0130362 1.51336 -0.876078
243 1 18.3844 0.836612 5.90889 -0.43264 0.343365 0.0531219 0.130978
244 1 14.3218 11.6573 0.63774 -0.44928 0.440481 -0.799194 0.56191
245 1 17.1087 11.2845 6.7286 -0.349716 -0.269412 -0.404163 -0.825436
246 1 22.7666 6.25886 0.889417 -0.33036 1.06743 -0.565736 0.912403
247 1 14.4542 11.0704 10.3322 -0.381874 -0.891444 1.48283 0.692
248 1 17.8035 2.0602 3.13912 -0.367193 -2.00628 1.65339 -0.945399
249 1 21.0048 7.58884 12.169 -0.417269 -0.348036 -0.601853 0.859257
250 1 22.9539 5.81124 8.65827 -0.390511 0.627345 1.22304 0.469822
251 1 14.8169 6.23024 12.098 -0.412567 -0.100945 0.620852 1.38323
252 1 12.7408 8.76995 10.0508 -0.376814 1.83525 0.643709 1.47495
253 1 21.9114 12.13 7.57046 -0.32988 -1.85161 -0.140898 -0.0499713
254 1 13.8547 2.32087 4.1689 -0.411908 -0.880507 1.96233 -1.60442
255 1 22.1326 3.6918 3.56039 -0.382462 -0.0586029 0.396066 -0.311069
256 1 13.1977 9.21816 7.38964 -0.393526 0.0610379 -1.97856 0.3458
257 2 23.5296 2.87123 2.74716 0.190657 0.504054 0.178513 -0.469812
258 2 17.9485 5.51361 2.57795 0.198625 0.365459 -1.40216 2.23055
259 2 12.6987 6.80686 3.29874 0.202224 0.38213 -0.0762496 0.786495
260 2 16.7193 4.19759 4.46339 0.181181 -0.184643 0.462897 0.366372
261 2 16.0689 11.5672 11.7745 0.196142 -1.76968 -0.291747 -0.143642
262 2 18.9726 12.0714 1.9888 0.176854 0.069526 -0.0557107 0.089105
263 2 17.8298 9.14059 10.8452 0.193527 0.163753 -0.0713847 -0.664996
264 2 18.1746 10.3041 1.64349 0.184496 0.0966094 0.208566 0.0787689
265 2 21.1568 11.0694 0.396479 0.176698 0.681105 0.00105526 -0.375213
266 2 12.7083 1.04294 8.27119 0.17339 -1.02763 -0.985531 0.358983
267 2 17.9098 7.0758 11.1542 0.179954 0.130652 0.352775 0.126543
268 2 16.2887 4.15737 1.06179 0.195106 -0.31664 -1.10293 -0.000611848
269 2 24.0002 10.1755 4.1569 0.190589 -0.252433 0.02458 -0.143659
270 2 15.4502 8.16203 2.13838 0.185304 -0.0459507 -0.0208582 -0.141375
271 2 21.9841 10.0371 10.5437 0.185148 -0.120317 -0.715708 -0.356189
272 2 23.627 4.83506 6.04128 0.170616 -0.406837 0.40054 -1.37114
273 2 13.1283 3.77014 12.4415 0.179516 -0.436815 -0.706479 -0.589024
274 2 12.8798 5.493 4.8915 0.189934 -0.773307 -0.312811 0.133216
275 2 21.9579 9.47523 3.95288 0.198568 -0.644108 0.409356 0.492462
276 2 21.5153 5.88623 9.67829 0.184827 -0.769342 -0.116738 0.591026
277 2 20.3594 3.83356 0.785029 0.156148 -0.274217 2.13184 0.603526
278 2 16.6692 3.22696 8.21163 0.192148 -1.15996 0.0785846 -0.0275632
279 2 17.713 5.907 8.1871 0.187826 0.307344 -0.205399 -0.127806
280 2 16.8784 10.9069 3.13898 0.186749 -0.338784 -0.614332 0.683073
281 2 19.3797 4.5537 4.88618 0.195258 0.0303963 0.281638 0.0336787
282 2 24.3278 1.60872 11.756 0.176082 0.635924 1.21602 -1.0501
283 2 19.2409 8.53867 3.07672 0.172627 0.032765 0.220887 1.14405
284 2 18.0621 4.98983 10.1382 0.220936 0.00533831 -0.618547 0.219225
285 2 15.5567 6.65584 6.99293 0.189157 0.397951 0.124213 0.090474
286 2 24.1744 8.22955 6.85493 0.190181 -0.849219 -0.663659 -0.0174562
287 2 20.8529 3.46886 6.18636 0.181407 0.457048 -0.423411 0.0907375
288 2 17.0682 2.37817 12.1547 0.181453 1.11035 -0.326508 -0.724927
289 2 13.1962 11.6968 3.83782 0.196139 0.621089 0.0821513 0.194304
290 2 13.552 5.27786 9.73005 0.199604 -0.421974 -0.556741 0.394075
291 2 19.9828 9.11848 0.833815 0.193357 0.092918 -0.531325 -0.340478
292 2 23.8059 6.21022 11.9008 0.19212 -0.246979 -0.105047 0.13779
293 2 18.2944 2.21184 7.52262 0.182405 0.452247 1.00398 0.341203
294 2 21.2528 2.01106 9.88625 0.183055 -0.0558271 -0.132784 -0.104217
295 2 14.6143 2.43403 7.46487 0.20242 -1.24072 -0.231477 -0.43057
296 2 22.5438 2.53732 6.55655 0.180513 -0.0392476 -0.305042 -0.376027
297 2 21.5191 4.28984 10.9151 0.184847 -0.272036 -0.462871 -0.0140707
298 2 13.085 8.13733 1.45538 0.199121 0.466892 0.615719 -0.294648
299 2 23.5616 4.20346 8.14663 0.201867 -0.114534 0.18034 0.106903
300 2 23.4685 12.0207 0.581427 0.19458 0.973613 1.44464 0.0668296
301 2 19.2698 1.83612 12.1912 0.187175 -0.242677 0.250707 0.243152
302 2 21.5689 10.4578 7.24321 0.184927 -0.18225 -0.157231 -0.321388
303 2 14.2008 12.4336 6.78985 0.186297 -1.22026 1.43376 -0.114024
304 2 19.8088 11.8715 5.07938 0.17524 0.619301 -0.348127 -0.127862
305 2 18.0393 8.27683 7.44046 0.21925 0.149946 -0.20404 -0.0612734
306 2 20.5967 12.1277 10.8507 0.192777 -0.261101 -1.65153 0.629631
307 2 17.9228 0.0594862 6.32431 0.189171 0.118924 0.426896 -0.119846
308 2 13.4454 11.9935 0.406269 0.190387 0.0193209 0.154315 0.460702
309 2 16.9785 10.963 5.79361 0.185403 0.00819742 -0.0182789 0.747039
310 2 23.3849 6.29485 1.646 0.201477 0.0676593 0.603959 -0.346369
311 2 14.9718 10.552 9.76591 0.217178 1.16529 -0.900161 -1.33469
312 2 17.1768 2.40776 2.40855 0.183373 0.95848 -0.632946 1.4662
313 2 21.2737 8.26777 11.5706 0.187038 0.770723 0.711564 -0.761172
314 2 23.3289 6.06592 9.57848 0.177358 -0.149031 -0.477975 -1.37151
315 2 14.5742 5.99123 11.1933 0.183357 0.180215 0.0444464 -0.556204
316 2 12.9087 9.06492 9.12997 0.172675 -0.0138692 -0.122835 0.116096
317 2 21.1415 12.3445 8.14859 0.199585 0.614227 0.182648 -0.575752
318 2 14.2146 1.44039 4.07322 0.193103 -0.339597 -0.821374 -0.592832
319 2 22.5044 4.43079 4.10743 0.19168 -0.11422 -0.654972 -0.065159
320 2 13.8875 8.47402 7.32357 0.19847 -0.691128 1.24647 -0.263108
321 2 24.6927 3.30937 1.6756 0.205936 -0.549634 -0.559711 0.619071
322 2 18.6968 6.217 1.55116 0.199748 0.664192 0.0325763 -0.560762
323 2 23.9499 7.87051 3.14359 0.209568 -0.540805 0.347303 0.583837
324 2 15.4155 3.43598 4.60743 0.181336 -0.586107 -0.13165 0.0234374
325 2 17.4923 11.1608 11.2955 0.203626 -0.264957 -0.06086 -0.244463
326 2 20.0417 12.404 3.00958 0.19122 1.28015 -1.10267 4.14508
327 2 18.3861 9.67758 9.35349 0.201454 -0.805353 -0.31854 1.37627
328 2 17.3852 11.4579 0.964243 0.192603 -0.323934 0.140617 -0.338342
329 2 21.362 11.6801 1.6882 0.181952 -0.842657 1.41519 1.54504
330 2 24.5145 1.35813 9.5438 0.171446 -0.367302 0.438166 1.29769
331 2 16.6163 7.28098 11.8115 0.186985 -1.20143 -0.128546 0.575736
332 2 15.1173 3.09643 1.04291 0.197303 0.315371 0.291694 0.0659081
333 2 24.329 10.5757 5.56545 0.209321 0.143941 -0.470459 1.93179
334 2 16.7201 7.22688 2.15246 0.186826 0.0120805 0.263578 0.109817
335 2 23.2486 9.2163 10.1673 0.189077 -0.629463 -0.328055 0.0169609
336 2 23.1155 6.19514 5.44373 0.199692 0.432435 -0.499232 -0.101482
337 2 13.959 4.89531 0.523198 0.187769 -0.406849 -0.175914 0.490698
338 2 14.393 5.35257 4.59985 0.201432 0.628932 -0.276916 -0.126261
339 2 22.4644 9.64889 2.45273 0.192592 -0.100818 -1.20606 2.17051
340 2 20.8636 6.42769 11.0344 0.181811 0.120941 0.948163 0.932911
341 2 21.0151 4.29043 2.01829 0.17089 -0.381392 0.689817 0.415024
342 2 15.559 4.28139 8.40383 0.186212 -0.386117 -0.0321338 0.190073
343 2 17.5671 5.53218 6.59992 0.200181 0.0882529 0.303146 0.775919
344 2 16.4163 9.57169 3.87784 0.199193 -0.12782 0.781729 -0.33266
345 2 18.615 3.62449 3.9025 0.178974 0.0387291 0.591707 0.0399456
346 2 23.8379 2.91727 10.9929 0.185325 0.136486 -0.386883 0.140395
347 2 18.4054 8.02494 4.2642 0.20621 1.0427 0.714779 -0.0372847
348 2 19.2589 5.89242 9.82934 0.200443 1.84542 -0.306369 0.222584
349 2 14.2689 6.60256 6.15762 0.187969 -0.627193 -0.3919 -1.04487
350 2 22.6147 8.34722 6.87905 0.184858 -0.0910752 -0.163404 -0.0505708
351 2 21.1915 4.67359 7.12894 0.194966 -1.13515 -0.490299 -0.716436
352 2 17.2746 1.09047 11.3733 0.19369 0.351377 -0.242495 -0.0106766
353 2 14.8305 11.714 3.70005 0.18918 -1.44906 0.0937219 -0.00663116
354 2 14.4711 6.08428 8.92493 0.195491 0.442657 -0.0840044 0.40253
355 2 18.4934 8.48248 0.614119 0.187238 1.43595 0.887357 0.854736
356 2 24.5659 7.04345 10.8144 0.18373 0.258786 0.555876 0.013892
357 2 19.2492 3.45832 7.30276 0.172692 -1.24431 -0.28849 1.56773
358 2 19.9556 1.97237 9.10096 0.172896 0.260896 -0.590807 0.17956
359 2 13.6944 2.24566 6.17247 0.197806 -0.0667507 0.215074 -1.2521
360 2 21.746 1.19347 6.34829 0.177466 0.436221 1.8228 -0.952436
361 2 21.2835 2.90307 11.6909 0.189467 0.0623752 0.148013 -0.0951688
362 2 13.8273 9.43234 0.837325 0.204594 -0.101006 1.08301 0.0212904
363 2 24.5724 3.21913 7.49778 0.198381 2.80241 -1.05496 0.0668209
364 2 23.8181 0.956895 1.34138 0.188124 1.14136 -1.01266 -1.44047
365 2 19.8827 1.82015 1.24248 0.193584 0.515268 -0.294655 -1.99929
366 2 21.5947 9.42487 8.28563 0.17689 0.36121 -0.601101 1.88993
367 2 15.4109 11.6645 6.88166 0.190089 0.61462 -0.87338 0.153879
368 2 19.9399 10.4345 4.4803 0.181689 0.637689 1.03778 0.332469
369 2 19.1285 9.39721 7.48224 0.206815 2.8271 0.099337 -0.964847
370 2 19.7234 10.7736 10.9201 0.1881 0.0819414 0.139078 -0.0659465
371 2 17.8899 1.07973 5.12498 0.19842 -0.0591181 0.197983 -0.208766
372 2 14.3778 11.5617 1.61387 0.183194 -0.492115 0.683599 -0.789607
373 2 17.4955 10.5569 7.26776 0.214082 -0.302226 -0.109358 -0.512926
374 2 22.1865 5.51871 1.10829 0.183669 -0.7156 -0.206247 -0.448552
375 2 14.1736 11.8415 9.80476 0.202351 -0.0757291 -0.582537 0.398045
376 2 18.4536 1.5664 2.66939 0.173002 0.912963 -0.92139 -0.35883
377 2 21.789 7.20694 0.206085 0.19869 -0.363983 0.473705 -0.119469
378 2 23.1671 6.54667 7.97392 0.183443 -0.317613 -0.823992 1.07757
379 2 14.3018 7.02313 12.3702 0.188848 0.449866 -0.293561 -0.0793508
380 2 13.5168 9.15649 10.6099 0.186466 -2.37463 -0.761322 -1.46409
381 2 22.6294 12.3767 8.12969 0.194401 1.53639 0.438576 0.587047
382 2 13.3557 2.57214 3.28241 0.176463 0.969004 -1.19575 2.49002
383 2 21.7898 3.02413 4.16577 0.203031 0.215602 -0.0963693 0.204841
384 2 13.5456 10.1009 7.22013 0.214426 0.790371 0.437884 -0.286811
385 1 11.8322 15.0037 2.18159 -0.416013 0.626587 0.395499 -0.40663
386 1 5.3622 18.4463 1.8129 -0.354721 0.725409 0.751587 -1.35732
387 1 12.1699 19.7894 2.71208 -0.371671 0.455946 -0.519718 -1.8962
388 1 3.38047 16.7242 4.84271 -0.404693 0.822705 -0.653809 -0.685696
389 1 4.54047 24.1748 11.898 -0.349707 0.608691 0.840387 0.49313
390 1 7.34053 12.6251 2.17991 -0.369814 -0.228055 1.04923 -1.3044
391 1 5.73018 22.3416 10.3075 -0.429228 0.0349694 -0.0459531 1.06328
392 1 5.32419 23.6388 1.83308 -0.356929 -0.0627652 -0.821325 -0.0432383
393 1 9.39218 23.5843 1.10112 -0.38539 0.557628 -1.2271 -0.614676
394 1 12.0589 13.0843 8.91829 -0.43268 1.02839 0.0705427 -1.54967
395 1 5.01111 20.1645 11.7415 -0.326882 0.87489 -0.595076 -0.824466
396 1 3.63956 15.6327 1.07544 -0.326166 0.200617 1.43949 0.0276726
397 1 11.8848 23.3417 4.69962 -0.392228 0.341524 1.25832 -2.34549
398 1 3.88517 20.4963 2.51216 -0.465191 -0.358997 0.237712 0.0887434
399 1 9.81927 21.6064 10.1805 -0.369533 -0.197984 1.83412 0.599115
400 1 11.001 17.7538 5.1704 -0.316537 -0.00614594 0.484645 1.49947
401 1 0.969765 16.5655 0.843611 -0.3553 0.611276 0.619526 -1.30021
402 1 1.23865 18.4313 4.75913 -0.373215 -0.523999 1.72308 -0.241637
403 1 10.0979 21.5308 3.3195 -0.355463 0.974929 0.711806 -2.6274
404 1 8.39373 18.1629 10.3904 -0.369749 0.92801 -0.684548 -2.11176
405 1 8.05923 17.1639 1.30155 -0.369573 0.79126 -2.92807 -0.443761
406 1 3.23312 15.7835 8.26013 -0.39901 1.70906 -0.044699 -0.0745857
407 1 5.0197 18.6567 7.28831 -0.413728 -0.416126 0.576113 0.240825
408 1 3.93656 22.9929 3.95494 -0.399219 0.484974 0.443171 -0.190933
409 1 6.25274 17.0024 4.20984 -0.382135 -0.437507 -1.05146 -0.405014
410 1 12.1811 14.7966 11.1107 -0.384124 -0.714338 -1.14049 1.36833
411 1 6.75725 21.0158 4.06761 -0.405124 -1.23231 -0.790896 -0.131005
412 1 5.87056 18.2853 9.78767 -0.343234 -2.0462 0.310279 -0.0940654
413 1 2.17865 19.3543 6.99 -0.401488 -0.233948 0.543709 1.23764
414 1 10.8886 20.1358 6.77594 -0.346466 0.590105 0.716357 0.0601097
415 1 8.03368 16.7235 6.56708 -0.32721 -0.255792 -0.230754 -0.492809
416 1 5.29019 14.362 11.5581 -0.423044 -1.27864 0.582817 0.671343
417 1 1.52859 24.6056 3.45257 -0.408622 0.587055 -0.925795 0.386582
418 1 2.03771 17.931 9.71229 -0.310248 -0.544042 0.954141 -2.00222
419 1 6.65825 21.4943 1.21064 -0.337432 -1.86027 -1.02966 -0.385923
420 1 11.7513 18.6231 11.0079 -0.37966 0.145338 0.428762 -0.18824
421 1 6.1105 15.5118 7.95949 -0.392371 0.731815 -0.676499 -1.61563
422 1 8.21989 13.8228 9.43104 -0.392325 -0.502559 0.575149 -0.0780046
423 1 1.3102 14.4638 7.09059 -0.381964 1.1847 0.190354 1.24414
424 1 9.47814 14.5521 5.91958 -0.387605 -0.420403 -1.88118 1.38481
425 1 9.32546 15.7821 10.9699 -0.416286 0.302413 -0.0333668 0.203921
426 1 1.31176 20.9336 0.812891 -0.390315 -0.158891 -0.221299 0.247429
427 1 11.2517 15.9226 7.50996 -0.366382 -1.92099 0.726772 -0.586284
428 1 11.6963 12.7764 0.602659 -0.380498 -1.37787 -0.332122 0.518862
429 1 7.63289 14.484 0.280703 -0.387928 0.46712 0.503288 1.77366
430 1 8.85633 21.965 7.39892 -0.385864 -0.601344 0.346447 -2.25558
431 1 2.01028 23.9842 6.88913 -0.40984 0.160394 0.305445 0.0991961
432 1 8.01822 23.7156 4.65721 -0.387278 -1.37216 -0.614359 -0.103286
433 1 5.82059 21.6252 7.70745 -0.321354 -1.50607 0.24474 0.935089
434 1 8.11133 23.634 11.2219 -0.342157 0.58026 1.8375 -0.690069
435 1 5.93868 13.2842 5.90676 -0.43441 0.459863 -0.16196 0.438823
436 1 1.88356 24.104 0.640413 -0.445168 0.245079 -0.777433 0.914739
437 1 4.66283 23.7242 6.73231 -0.351821 -0.198889 -0.64544 -0.989768
438 1 10.3203 18.7035 0.889856 -0.328957 1.26528 -0.649842 1.21833
439 1 2.01142 23.5138 10.3299 -0.380301 -0.673805 1.40265 0.330795
440 1 5.36155 14.5073 3.14059 -0.365497 -1.66567 1.3995 -0.970475
441 1 8.55931 20.0344 12.1711 -0.413595 -0.737437 -0.255784 0.503221
442 1 10.511 18.2533 8.66154 -0.394547 0.48696 1.58665 -0.307442
443 1 2.36908 18.677 12.0972 -0.416499 -0.0334418 0.766699 1.68083
444 1 0.299588 21.2168 10.0499 -0.378084 1.95398 0.712957 0.843506
445 1 9.4704 24.5741 7.571 -0.333289 -1.6719 0.0509811 0.612863
446 1 1.41036 14.7648 4.16814 -0.408394 -0.753454 1.56235 -1.69757
447 1 9.68873 16.1344 3.56121 -0.38816 -0.103158 0.443298 0.0982519
448 1 0.749844 21.6641 7.3892 -0.384471 0.138199 -1.985 0.369268
449 2 11.0971 15.3113 2.72737 0.192886 -0.192027 0.390915 0.0950857
450 2 5.51448 17.9507 2.59046 0.194228 0.213794 -1.01516 1.61232
451 2 0.238832 19.2581 3.30222 0.202572 0.70449 -0.411993 1.07173
452 2 4.28358 16.6246 4.4681 0.177866 -0.686453 0.50656 0.568762
453 2 3.62611 24.0046 11.7467 0.195663 -1.61837 -0.17157 -0.0508566
454 2 6.54177 24.5162 2.00287 0.17743 -0.385524 -0.335742 -0.105473
455 2 5.37602 21.5763 10.8609 0.192041 0.41838 0.454008 -1.09865
456 2 5.73212 22.741 1.6462 0.182105 -0.0321491 0.60808 0.176935
457 2 8.71808 23.5085 0.401719 0.176851 0.477011 -0.00242219 -0.533438
458 2 0.276321 13.4705 8.26838 0.173178 -1.12325 -0.928268 0.43594
459 2 5.47012 19.5175 11.1451 0.179051 -0.0575241 0.568857 0.35563
460 2 3.82557 16.618 1.05511 0.192804 -0.382503 -1.69652 0.0154049
461 2 11.5561 22.6356 4.15424 0.19416 -0.457651 -0.456643 -0.400416
462 2 3.00366 20.6258 2.13723 0.184642 0.331289 -0.140859 -0.0143521
463 2 9.51849 22.4877 10.5674 0.182725 0.115002 -1.31581 -0.669936
464 2 11.1777 17.2863 6.03501 0.172886 -0.345288 0.195551 -1.02192
465 2 0.677602 16.2052 12.4449 0.178342 -0.340784 -0.5959 -0.451292
466 2 0.431668 17.9618 4.89445 0.193611 -1.12583 -0.659715 0.187325
467 2 9.50222 21.9211 3.93027 0.198004 -0.855666 0.484277 0.824568
468 2 9.09011 18.3455 9.68086 0.18276 -1.01924 -0.236677 0.795151
469 2 7.92001 16.2752 0.800207 0.157289 -0.330448 1.96965 0.450548
470 2 4.22324 15.6629 8.21524 0.192829 -1.0782 0.120349 -0.0320917
471 2 5.26512 18.3539 8.20066 0.187447 0.193901 -0.0365263 -0.712021
472 2 4.42982 23.3332 3.13594 0.184823 -0.356115 -0.462375 0.736387
473 2 6.93168 17.0085 4.88922 0.196389 0.176702 0.212198 0.163569
474 2 11.8796 14.0536 11.7641 0.176272 0.696204 1.35563 -1.20322
475 2 6.79305 20.991 3.0958 0.176681 0.0750194 0.173169 0.109231
476 2 5.61882 17.4296 10.1325 0.219951 0.061768 -0.309217 0.0910206
477 2 3.09578 19.1064 6.97568 0.18925 1.10619 -0.0290931 0.209275
478 2 11.73 20.6594 6.85479 0.191572 -0.52254 -0.497319 -0.00438047
479 2 8.39768 15.8878 6.19437 0.18217 0.370029 -0.0232721 0.249508
480 2 4.63686 14.8262 12.1529 0.182143 0.924714 -0.270321 -0.633808
481 2 0.742351 24.1338 3.85702 0.194054 1.10952 0.418483 -0.0945607
482 2 1.09764 17.7486 9.70883 0.198558 -0.48124 -0.67156 0.545864
483 2 7.53442 21.558 0.835557 0.194466 0.146563 -0.531764 -0.379743
484 2 11.3604 18.6411 11.9068 0.190251 -0.0366716 -0.0401757 -0.304447
485 2 5.84578 14.6547 7.53639 0.184413 0.501079 0.952933 0.214696
486 2 8.80604 14.4567 9.88992 0.18319 0.0574279 -0.0956461 -0.0365321
487 2 2.18042 14.8701 7.46546 0.202116 -1.35839 -0.218177 -0.4664
488 2 10.0966 14.9683 6.55694 0.180017 0.0668653 -0.14267 -0.312243
489 2 9.0668 16.7356 10.9208 0.184162 -0.210026 -0.590931 -0.0609956
490 2 0.637593 20.5697 1.44145 0.199703 0.442572 0.662506 -0.210642
491 2 11.125 16.6385 8.14619 0.202068 -0.152003 0.358692 0.271853
492 2 11.0222 24.4956 0.586693 0.194244 0.562849 0.814265 -0.0186022
493 2 6.83617 14.2814 12.1969 0.187982 -0.569311 0.17026 -0.0658037
494 2 9.1155 22.8958 7.26484 0.18609 -0.0900172 0.321991 -0.565307
495 2 1.7635 24.9033 6.81614 0.181952 -0.897455 0.525184 -0.0142195
496 2 7.37389 24.3257 5.08275 0.177378 0.572655 -0.471257 -0.168546
497 2 5.59196 20.7364 7.4397 0.218372 -0.00731225 -0.704851 -0.2119
498 2 8.14076 24.5752 10.8503 0.193983 -0.235355 -1.69622 0.638654
499 2 5.48732 12.5004 6.33082 0.188862 0.135299 0.571952 -0.243166
500 2 1.00035 24.4247 0.40175 0.188874 0.141098 0.138383 0.440128
501 2 4.54376 23.3995 5.78972 0.18354 -0.0141594 0.0823089 0.968221
502 2 10.9319 18.7365 1.66017 0.200367 -0.0810086 0.606913 -0.603388
503 2 2.53175 22.9847 9.76188 0.217023 0.834606 -0.516678 -1.06368
504 2 4.72561 14.8532 2.42247 0.1844 0.953663 -0.613419 1.31711
505 2 8.84391 20.7045 11.5634 0.186713 0.74008 0.537404 -0.627112
506 2 10.8818 18.5103 9.56837 0.17822 0.0315823 -0.35935 -1.04661
507 2 2.14641 18.433 11.1937 0.185192 0.0348793 0.0202153 -0.752466
508 2 0.503955 21.5101 9.12538 0.169296 -0.318526 -0.28505 0.388303
509 2 8.68903 24.7778 8.1575 0.198103 1.03503 0.14442 -0.833006
510 2 1.75578 13.8721 4.07098 0.190704 -0.392397 -0.569857 -0.488445
511 2 10.049 16.8838 4.11944 0.190141 -0.229922 -0.975255 -0.268651
512 2 1.45694 20.9475 7.31673 0.196719 -0.726717 0.923546 -0.252012
513 2 12.248 15.7613 1.68584 0.206166 -0.539599 -0.654399 0.584862
514 2 6.28302 18.66 1.5582 0.194085 -0.720169 -0.279417 -0.198036
515 2 11.5166 20.301 3.15053 0.211619 -1.11661 0.82805 0.959467
516 2 2.95097 15.8803 4.60766 0.178387 -0.363799 0.279506 0.115726
517 2 5.02942 23.6128 11.3042 0.203439 0.410828 -0.605129 -0.82628
518 2 7.61518 24.8294 3.02591 0.186526 0.738282 -0.600375 2.27185
519 2 5.92989 22.1279 9.37745 0.202217 -0.522677 -0.548631 0.34519
520 2 4.94417 23.8957 0.955891 0.190655 -0.23966 0.131607 -0.0727045
521 2 8.91371 24.1261 1.69833 0.180553 -0.591941 1.08522 1.13434
522 2 12.0623 13.8008 9.54441 0.172157 -0.311354 0.391876 1.20276
523 2 4.16007 19.7222 11.7979 0.185799 -0.769467 0.0868233 0.560936
524 2 2.66518 15.53 1.04569 0.195816 0.51587 0.3259 0.0615674
525 2 11.8772 23.0358 5.55986 0.213602 0.0984853 -0.747423 2.63822
526 2 4.27599 19.6703 2.16239 0.187609 -0.0182154 0.222469 0.0491285
527 2 10.7887 21.6697 10.1885 0.19099 0.0569012 -0.285298 -0.00699651
528 2 10.6846 18.6497 5.44301 0.200277 0.451115 -0.647485 -0.143253
529 2 1.50997 17.3433 0.523068 0.186073 -0.396484 -0.199371 0.519944
530 2 1.93586 17.822 4.60711 0.206205 1.56056 -1.26442 -0.385624
531 2 10.0248 22.0924 2.47309 0.192524 -0.0775091 -1.02749 1.61347
532 2 8.41006 18.8667 11.039 0.181668 0.125928 0.989655 0.965706
533 2 8.57847 16.7412 2.0235 0.170573 -0.452868 0.727936 0.345637
534 2 3.11715 16.7309 8.40482 0.185955 -0.32912 -0.36009 0.126013
535 2 5.13036 17.9976 6.59857 0.202592 0.153387 -0.163699 0.38021
536 2 3.97724 22.0278 3.88534 0.199128 -0.172836 0.176639 -0.290755
537 2 6.18075 16.0657 3.89397 0.179559 0.0587772 0.717809 0.143261
538 2 11.406 15.3623 10.9885 0.186644 -0.190916 -0.155766 0.0975368
539 2 5.95287 20.4676 4.26006 0.206482 1.25957 0.865457 -0.0909939
540 2 6.81721 18.3357 9.83661 0.199821 1.75502 -0.28979 0.180719
541 2 1.83236 19.034 6.15042 0.185836 -0.665401 -0.228988 -0.764211
542 2 10.1894 20.818 6.87118 0.185031 -0.192971 -0.224854 -0.0520312
543 2 8.72977 17.1145 7.09936 0.200124 -0.0721565 0.0527696 0.0984148
544 2 4.83751 13.5233 11.3927 0.192857 0.314704 -0.223982 -0.00741697
545 2 2.37823 24.1496 3.69791 0.188041 -1.26355 0.0704226 0.039523
546 2 2.0182 18.5361 8.92627 0.193452 0.640627 -0.232099 0.589626
547 2 6.04113 20.9158 0.632497 0.18735 1.47684 0.949212 0.812147
548 2 12.1336 19.4989 10.812 0.181283 -0.0664663 -0.0971085 0.184988
549 2 6.8213 15.9067 7.31148 0.173477 -1.4018 -0.397643 1.571
550 2 7.51672 14.4284 9.11048 0.172145 0.211696 -0.643464 0.136037
551 2 1.24901 14.6991 6.17044 0.197284 -0.0342454 0.136786 -0.987542
552 2 9.30844 13.6292 6.35405 0.176056 0.393873 1.95988 -1.07676
553 2 8.83131 15.3453 11.6884 0.18909 0.0885298 0.136964 -0.102374
554 2 1.38554 21.9022 0.853274 0.201688 -0.217029 -0.291097 -0.0307293
555 2 12.1385 15.65 7.49748 0.195944 2.08648 -0.849514 0.070102
556 2 11.3933 13.3903 1.33202 0.191858 0.810818 -0.642596 -0.924935
557 2 7.41963 14.2575 1.23476 0.192245 0.627084 -0.261597 -1.88097
558 2 9.14278 21.8737 8.26725 0.180718 0.663736 -0.86607 2.98032
559 2 2.97292 24.0953 6.88358 0.18817 0.37556 -0.848357 0.115372
560 2 7.5125 22.8778 4.47355 0.18409 0.456501 1.00433 0.367149
561 2 6.68985 21.8415 7.45692 0.205533 2.18445 -0.0324574 -0.771944
562 2 7.29327 23.2152 10.9401 0.190224 -0.534379 -0.135007 -0.310039
563 2 5.44856 13.5159 5.12255 0.19893 -0.210638 0.245485 -0.407239
564 2 1.92208 24.0289 1.62805 0.180144 -0.438722 0.666978 -1.10903
565 2 5.05155 22.9882 7.27131 0.212808 -0.361818 0.0691148 -0.609119
566 2 9.73757 17.9645 1.1116 0.182977 -0.694051 -0.175178 -0.505708
567 2 1.72322 24.2939 9.80729 0.202258 0.064313 -0.877848 0.482144
568 2 6.02662 14.0239 2.66634 0.172356 0.585256 -0.683017 -0.197936
569 2 9.33043 19.6441 0.191913 0.19953 0.141712 0.260918 0.218672
570 2 10.7036 19.0081 7.95813 0.182294 -0.337806 -1.22179 1.48123
571 2 1.85276 19.4718 12.3758 0.190023 0.51987 -0.399189 -0.200534
572 2 1.08325 21.5933 10.5881 0.184164 -2.23214 -0.68429 -1.09016
573 2 10.1984 24.8216 8.13941 0.191791 0.946792 0.273676 0.191233
574 2 0.914343 14.9981 3.27704 0.175312 0.9012 -1.02244 2.48833
575 2 9.33569 15.457 4.16269 0.202217 0.374637 0.203873 -0.0171671
576 2 1.10839 22.5328 7.20234 0.212383 0.736002 0.806829 -0.304045
577 1 24.2726 15.0048 2.18134 -0.417836 0.342261 0.640724 -0.281438
578 1 17.8046 18.4436 1.80554 -0.353314 0.549904 0.163178 -0.418648
579 1 24.616 19.7861 2.70981 -0.376519 0.348621 -0.407326 -1.99133
580 1 15.8254 16.7248 4.83873 -0.403469 0.590563 -0.728024 -0.648119
581 1 16.9839 24.1735 11.899 -0.352471 1.15923 0.860422 0.443015
582 1 19.7853 12.6244 2.17961 -0.379646 -1.05832 1.52978 -3.51625
583 1 18.1733 22.3464 10.3066 -0.420449 0.30943 0.51881 0.664321
584 1 17.7631 23.6351 1.82959 -0.35433 -0.0206023 -0.558894 0.0428924
585 1 21.8361 23.5816 1.10116 -0.386496 0.673457 -1.31782 -0.654211
586 1 24.5049 13.0852 8.91929 -0.433904 1.38633 0.636769 -1.49958
587 1 17.4558 20.1632 11.7376 -0.333584 0.257604 0.0569178 -0.126211
588 1 16.0835 15.6338 1.08101 -0.3324 0.340489 1.19193 0.049706
589 1 24.3264 23.3448 4.70039 -0.394093 0.0627968 0.761972 -2.73437
590 1 16.3233 20.4981 2.51247 -0.46275 0.759117 -0.229632 0.387607
591 1 22.2641 21.6017 10.1809 -0.365705 0.334953 1.96854 0.649398
592 1 23.442 17.757 5.16629 -0.318168 0.133349 0.130584 2.04393
593 1 13.4164 16.5636 0.837024 -0.357706 0.798931 0.869379 -0.456689
594 1 13.6852 18.4351 4.75988 -0.372518 -0.837252 1.23156 -0.211586
595 1 22.5427 21.5329 3.3164 -0.352321 0.780158 0.687387 -2.21481
596 1 20.8367 18.1612 10.3876 -0.378524 0.647165 -0.320176 -1.27234
597 1 20.5036 17.1663 1.29866 -0.365312 0.852062 -2.68327 -0.248989
598 1 15.6744 15.7885 8.26134 -0.40243 2.0853 -0.830296 -0.209409
599 1 17.4643 18.6583 7.2925 -0.409495 -0.386002 0.444197 0.131711
600 1 16.3859 22.9951 3.94741 -0.402988 0.227235 -0.272258 0.183666
601 1 18.6958 17.0012 4.21296 -0.381596 0.0396261 -0.748154 0.139757
602 1 24.6241 14.7918 11.1133 -0.379899 -0.705327 0.0301135 0.504773
603 1 19.2046 21.0158 4.07113 -0.402703 -1.04413 -0.681974 -0.623149
604 1 18.3168 18.2882 9.78226 -0.347863 -2.91482 0.405079 -0.221639
605 1 14.6251 19.3557 6.99068 -0.396794 -0.888223 0.728656 1.29445
606 1 23.3331 20.1357 6.77874 -0.351574 0.604226 0.787327 0.0856622
607 1 20.4757 16.7208 6.57309 -0.328711 0.460683 -0.0616993 -0.152595
608 1 17.7357 14.3656 11.5558 -0.416657 -1.23531 0.256003 0.54868
609 1 13.9712 24.6072 3.44956 -0.408332 0.629179 -1.15248 0.585051
610 1 14.4825 17.9369 9.71081 -0.312697 -0.493674 1.33576 -2.45767
611 1 19.108 21.4958 1.21046 -0.337593 -2.02468 -1.02284 -0.436928
612 1 24.1971 18.6243 11.014 -0.374042 0.297356 0.156303 -0.882492
613 1 18.5536 15.5092 7.96413 -0.384483 0.712084 -0.259817 -1.2642
614 1 20.6648 13.8267 9.43061 -0.397279 -0.929268 0.352209 -0.41043
615 1 13.7553 14.4635 7.09105 -0.382464 1.00588 0.232012 0.878235
616 1 21.9254 14.5547 5.91793 -0.385542 -0.765239 -2.0092 0.846145
617 1 21.7749 15.7847 10.9694 -0.419103 0.480813 -0.107878 0.0497209
618 1 13.7551 20.9372 0.811307 -0.392671 -0.535958 -1.38715 0.485506
619 1 23.6947 15.9232 7.50555 -0.361799 -1.79185 0.594909 -0.68707
620 1 24.1415 12.7758 0.600738 -0.38243 -1.82777 -0.653341 0.641759
621 1 20.074 14.4842 0.282571 -0.393512 0.160827 0.501051 1.0911
622 1 21.3048 21.9642 7.40053 -0.384905 -0.370015 0.351183 -1.71125
623 1 14.4528 23.9877 6.8909 -0.410449 0.695462 -0.578231 0.161883
624 1 20.465 23.7141 4.65903 -0.384459 -1.74519 -0.678345 -0.0535414
625 1 18.2665 21.6237 7.70862 -0.326347 -2.19602 -0.736795 0.733497
626 1 20.5533 23.6358 11.2193 -0.339801 0.520961 1.22922 -0.364956
627 1 18.3832 13.2834 5.9092 -0.438457 0.195362 -0.0192211 0.00551648
628 1 14.3261 24.1045 0.639691 -0.447174 -0.235225 -0.634105 0.879948
629 1 17.1066 23.7243 6.73085 -0.349537 -0.194783 -0.351742 -0.611752
630 1 22.7661 18.7069 0.889436 -0.329032 0.73199 -0.903204 0.972067
631 1 14.4564 23.5121 10.3305 -0.380691 -0.876888 1.61266 0.67539
632 1 17.8034 14.5032 3.13882 -0.363593 -2.03212 1.64713 -0.68621
633 1 21.0047 20.0358 12.168 -0.417206 -0.775608 -0.812458 0.961782
634 1 22.9562 18.2574 8.66142 -0.397588 0.682096 1.41432 0.416587
635 1 14.8159 18.6789 12.0973 -0.413158 0.530192 -0.152518 1.31523
636 1 12.7416 21.2127 10.051 -0.378007 2.08888 0.705425 1.55817
637 1 21.916 24.5743 7.56713 -0.329039 -1.05495 0.145389 0.662943
638 1 13.8531 14.7642 4.17248 -0.406681 -1.04228 2.5398 -1.38781
639 1 22.1347 16.1349 3.55883 -0.385526 -0.178872 0.276165 0.0912197
640 1 13.1954 21.6626 7.39173 -0.389669 0.110958 -2.46439 0.394166
641 2 23.5261 15.3177 2.72471 0.190751 0.135587 0.257211 -0.116866
642 2 17.9429 17.9575 2.61349 0.192449 0.124769 -0.445922 0.725129
643 2 12.6898 19.2515 3.29355 0.20263 0.642005 -0.324412 0.965248
644 2 16.723 16.6309 4.4589 0.179129 -0.551559 0.469212 0.52253
645 2 16.0719 24.0027 11.773 0.197142 -1.91612 -0.303177 -0.146421
646 2 18.9748 24.5225 1.97023 0.174836 0.0403763 -0.116525 0.148807
647 2 17.8247 21.5914 10.8329 0.192899 0.1248 -0.103912 -0.541014
648 2 18.1747 22.7487 1.6257 0.18283 0.024373 0.445677 0.179176
649 2 21.1516 23.5079 0.416321 0.176926 0.422622 -0.0397635 -0.651419
650 2 12.7031 13.4645 8.26522 0.17652 -0.840465 -0.720263 0.268969
651 2 17.9064 19.5328 11.1609 0.182234 0.483071 -0.128121 -0.286699
652 2 16.2882 16.6105 1.06658 0.194176 -0.456469 -1.50423 -0.00588528
653 2 23.9831 22.6351 4.14283 0.19148 -0.191328 0.0695907 0.0595915
654 2 15.4602 20.61 2.14588 0.187612 -0.746237 0.0803805 -0.435297
655 2 21.9842 22.4863 10.5742 0.181882 -0.00193614 -1.33957 -0.701067
656 2 23.6242 17.2841 6.04691 0.169602 -0.453381 0.46653 -1.56018
657 2 13.1131 16.2231 12.4398 0.178649 -0.37967 -0.674469 -0.493008
658 2 12.8702 17.9569 4.89063 0.191325 -0.689979 -0.337084 0.123273
659 2 21.9502 21.9213 3.94039 0.1982 -0.643581 0.352236 0.57767
660 2 21.5259 18.3063 9.68051 0.184129 -0.709363 0.0213007 0.535058
661 2 20.3613 16.2835 0.811413 0.15949 -0.39669 1.69822 0.181596
662 2 16.6704 15.65 8.21918 0.192801 -1.39176 0.225866 -0.00826395
663 2 17.721 18.341 8.19332 0.185029 0.161457 0.0516654 -0.525532
664 2 16.8796 23.3425 3.14534 0.187206 -0.209666 -0.50038 0.443089
665 2 19.393 17.0105 4.89527 0.195674 -0.337897 0.176585 -0.326378
666 2 24.3388 14.0689 11.7358 0.181117 0.329437 0.502664 -0.419485
667 2 19.2272 20.9883 3.0922 0.174835 0.189744 0.265717 0.362883
668 2 18.0655 17.4404 10.1343 0.22113 -0.00239369 -0.505824 0.180533
669 2 15.5258 19.0953 6.97949 0.19172 1.78665 -0.199888 0.214508
670 2 24.1771 20.658 6.86516 0.191068 -0.621099 -0.515253 -0.0331145
671 2 20.8514 15.8905 6.18492 0.180651 0.247335 0.164075 0.391222
672 2 17.0934 14.8046 12.1711 0.182568 0.752533 -0.0797215 -0.531267
673 2 13.1869 24.1286 3.86079 0.1926 1.21019 0.548364 -0.178299
674 2 13.5431 17.753 9.71994 0.197339 -0.496242 -0.635269 0.49516
675 2 19.9794 21.5554 0.829115 0.193888 0.275723 -0.509924 -0.415536
676 2 23.7981 18.6512 11.8906 0.193238 -0.32941 -0.0429324 0.378781
677 2 18.2964 14.6731 7.53346 0.186581 0.219005 0.256097 -0.00809475
678 2 21.2606 14.4406 9.88524 0.185132 0.148073 0.222613 0.0757105
679 2 14.6154 14.8811 7.45531 0.200892 -1.18276 -0.210354 -0.319157
680 2 22.5463 14.9722 6.5287 0.183508 0.467081 0.106618 0.132267
681 2 21.5152 16.7345 10.8898 0.185129 -0.297551 -0.535384 0.0907053
682 2 13.0848 20.572 1.46062 0.199115 0.694221 0.797879 -0.49802
683 2 23.5684 16.6311 8.14393 0.201717 -0.246426 0.535625 0.40003
684 2 23.4893 24.4723 0.568458 0.19758 0.603587 1.09521 0.105145
685 2 19.2636 14.2824 12.1986 0.185864 -0.155795 0.261884 0.163363
686 2 21.5831 22.8903 7.25422 0.186157 -0.165082 0.205063 -0.484874
687 2 14.2116 24.8876 6.80058 0.18556 -1.28178 1.49959 -0.104335
688 2 19.8063 24.325 5.08032 0.175225 0.803273 -0.677444 -0.277742
689 2 18.0239 20.7186 7.42915 0.218115 0.323723 0.25925 0.0731566
690 2 20.5854 24.5709 10.8823 0.196088 -0.199131 -1.09169 0.352758
691 2 17.9293 12.498 6.33298 0.188806 0.156908 0.612034 -0.279613
692 2 13.4337 24.4382 0.407908 0.186902 0.567615 -0.0505274 0.52507
693 2 16.9815 23.4016 5.80462 0.185249 -0.0548671 -0.0773983 0.436299
694 2 23.372 18.7433 1.65731 0.20176 0.0107277 0.496956 -0.399293
695 2 14.9558 22.9923 9.75023 0.216598 1.15856 -0.927927 -1.38661
696 2 17.1774 14.844 2.41488 0.18434 0.770474 -0.508367 1.3068
697 2 21.2685 20.7019 11.5597 0.190094 0.976788 0.847966 -0.868621
698 2 23.3411 18.5073 9.58547 0.175944 -0.232519 -0.469948 -1.52392
699 2 14.5897 18.4388 11.1924 0.186019 0.0677903 0.0273528 -0.736725
700 2 12.9242 21.5095 9.13613 0.171751 -0.117833 -0.123388 0.0035833
701 2 21.1459 24.7833 8.14785 0.197921 0.573069 0.163182 -0.616086
702 2 14.1912 13.8899 4.07188 0.195007 -0.0423775 -1.48945 -0.616693
703 2 22.5012 16.8774 4.11682 0.190548 -0.184511 -0.831309 -0.20385
704 2 13.8939 20.9282 7.32488 0.196512 -0.828695 1.11045 -0.234988
705 2 24.6815 15.7652 1.67658 0.205029 -0.563806 -0.776804 0.677373
706 2 18.7216 18.6601 1.56066 0.194371 -0.480256 -0.252129 -0.227541
707 2 23.9407 20.2871 3.12732 0.211475 -1.10093 0.816014 0.968003
708 2 15.392 15.8791 4.60541 0.17817 -0.276853 0.383309 0.142515
709 2 17.484 23.6236 11.2962 0.20519 0.155319 -0.493726 -0.706346
710 2 20.0384 24.8264 3.05254 0.182669 0.376013 -0.424958 1.30125
711 2 18.3708 22.124 9.38127 0.202125 -0.47961 -0.494795 0.158297
712 2 17.3717 23.912 0.967949 0.191938 -0.256239 0.0865082 -0.174748
713 2 21.3653 24.123 1.7001 0.181058 -0.647635 1.21883 1.31415
714 2 24.5204 13.8186 9.539 0.168884 -0.38319 0.0281435 0.970201
715 2 16.6031 19.723 11.7988 0.185799 -0.705784 0.106842 0.548817
716 2 15.1112 15.5295 1.04555 0.197163 0.471789 0.392064 0.0612474
717 2 24.3309 23.0313 5.55878 0.212331 0.113813 -0.784251 2.54931
718 2 16.7124 19.6658 2.15821 0.186605 -0.0275643 0.452294 0.168022
719 2 23.243 21.6706 10.1927 0.188932 -0.333578 -0.400116 -0.0639999
720 2 23.1298 18.6511 5.44442 0.199216 0.41513 -0.579144 -0.142528
721 2 13.9468 17.3448 0.516636 0.186986 -0.321081 -0.162117 0.482438
722 2 14.3807 17.8136 4.62384 0.204125 1.4386 -1.09354 -0.355907
723 2 22.4606 22.085 2.47302 0.1938 -0.0985502 -0.865896 1.44577
724 2 20.8632 18.8834 11.0438 0.179924 0.142482 0.390424 0.390053
725 2 21.0152 16.7386 2.02279 0.171356 -0.397484 0.786493 0.40101
726 2 15.5682 16.7223 8.40783 0.187951 -0.387027 0.358349 0.24645
727 2 17.5603 17.9842 6.61487 0.200058 0.139762 -0.0920875 0.273351
728 2 16.4049 22.014 3.88362 0.200049 -0.105272 0.90219 -0.344786
729 2 18.6152 16.0719 3.89869 0.180307 0.102818 0.464645 0.0922381
730 2 23.8382 15.3596 10.992 0.187301 0.161885 -0.405622 0.15448
731 2 18.4023 20.4734 4.2462 0.205772 0.963279 0.672273 0.133711
732 2 19.2463 18.3361 9.82137 0.202094 2.68145 -0.211672 0.224031
733 2 14.2726 19.0304 6.15693 0.186904 -0.707846 -0.23357 -0.823853
734 2 22.6284 20.8127 6.88857 0.184076 -0.101044 -0.250798 -0.0934903
735 2 21.1816 17.1108 7.12503 0.196443 -0.681074 -0.282806 -0.395946
736 2 17.2754 13.5292 11.3748 0.193755 0.44422 -0.0812133 0.0160802
737 2 14.8236 24.1532 3.70946 0.185816 -1.39316 0.164585 -0.0807251
738 2 14.4594 18.5486 8.90805 0.190986 0.588902 -0.654413 1.11366
739 2 18.4835 20.9382 0.61701 0.186705 1.5007 0.881852 0.903032
740 2 24.5617 19.4967 10.8032 0.183447 0.0896413 0.186737 0.150905
741 2 19.2471 15.8949 7.31201 0.174973 -1.10137 -0.169053 1.43378
742 2 19.9535 14.4257 9.09338 0.17216 0.546784 -0.729676 0.344776
743 2 13.6974 14.6964 6.1658 0.195785 -0.0617517 0.0691703 -0.779175
744 2 21.7673 13.6355 6.34989 0.178498 0.328931 1.82563 -1.00539
745 2 21.2811 15.3471 11.6844 0.190551 0.00292337 0.165388 -0.0361864
746 2 13.8364 21.8853 0.851796 0.203789 -0.139256 0.687717 0.00458801
747 2 24.5864 15.6655 7.50204 0.196002 2.06642 -0.874413 0.0306235
748 2 23.822 13.3869 1.32826 0.189487 0.928368 -0.626005 -0.990751
749 2 19.8784 14.262 1.23248 0.193712 0.457913 -0.362917 -1.63644
750 2 21.597 21.8705 8.27687 0.178999 0.476398 -0.745134 2.39394
751 2 15.4173 24.1119 6.87204 0.188344 0.236912 -0.958867 0.168482
752 2 19.9612 22.8666 4.46829 0.182861 0.586819 1.28744 0.441264
753 2 19.1378 21.8375 7.48526 0.205945 2.55018 -0.0177384 -0.86905
754 2 19.7325 23.2282 10.9279 0.191928 -0.4834 -0.142227 -0.28198
755 2 17.8999 13.5157 5.10837 0.197436 0.0448319 0.0926745 0.057704
756 2 14.3514 23.9991 1.62627 0.178637 -0.368546 0.73239 -1.14958
757 2 17.506 22.9929 7.25894 0.212625 -0.297416 -0.0783753 -0.440138
758 2 22.1594 17.9666 1.08844 0.182588 -0.326742 0.16195 -0.462977
759 2 14.1858 24.296 9.81189 0.202489 -0.074043 -0.676221 0.459288
760 2 18.4588 14.0343 2.66028 0.173826 1.11573 -1.02618 -0.465387
761 2 21.7801 19.6451 0.2109 0.197601 -0.287199 0.531727 -0.133827
762 2 23.148 19.005 7.96961 0.181939 -0.283983 -1.02333 1.2786
763 2 14.318 19.4545 12.3737 0.192839 -0.084979 0.494508 0.117652
764 2 13.5305 21.5982 10.601 0.184759 -2.52598 -0.832067 -1.40372
765 2 22.6374 24.8338 8.14985 0.190526 0.785329 0.163199 -0.0675529
766 2 13.3537 15.0152 3.29581 0.178249 0.867127 -1.09223 2.30173
767 2 21.7892 15.4545 4.16362 0.201997 0.384742 0.235677 -0.0705996
768 2 13.5697 22.518 7.21027 0.212245 0.838056 1.10697 -0.381868
769 1 11.8295 27.4483 2.17678 -0.421481 0.00783127 0.923919 -0.0139303
770 1 5.35566 30.889 1.81025 -0.35475 0.311601 0.0528224 -0.307389
771 1 12.1697 32.2275 2.70867 -0.371661 -0.129628 0.01549 -1.95737
772 1 3.3828 29.168 4.84171 -0.399975 0.727717 -0.419104 -0.574267
773 1 4.54186 36.6189 11.9014 -0.352174 1.34809 0.639374 0.220396
774 1 7.34104 25.0686 2.17498 -0.371276 -0.0539623 1.35072 -1.43539
775 1 5.72784 34.792 10.3087 -0.431296 0.255914 -0.336516 0.00679646
776 1 5.31507 36.0819 1.8311 -0.35007 0.15859 -0.703336 0.144672
777 1 9.3871 36.0275 1.09906 -0.384317 1.3642 -1.45941 -0.333213
778 1 12.0593 25.5307 8.92304 -0.433814 1.58188 0.410309 -2.13867
779 1 5.01006 32.6079 11.7439 -0.328728 0.433775 -0.206915 -0.434625
780 1 3.64223 28.0788 1.07803 -0.330143 0.448675 1.4357 0.0549196
781 1 11.878 35.7868 4.70134 -0.38987 0.27609 1.02468 -2.01755
782 1 3.87809 32.9404 2.51162 -0.465321 -0.131337 0.449998 0.386886
783 1 9.82308 34.0485 10.1797 -0.363399 0.412065 1.99274 0.632768
784 1 11.001 30.1987 5.16893 -0.315301 0.0238 0.316924 1.70969
785 1 0.968325 29.0092 0.840807 -0.354149 0.489995 0.434993 -0.751483
786 1 1.23941 30.8816 4.75832 -0.374725 0.830494 1.44954 -0.558729
787 1 10.1021 33.9805 3.32023 -0.354158 0.676592 0.727266 -2.23649
788 1 8.3902 30.6094 10.388 -0.381295 0.705539 -0.544587 -1.62429
789 1 8.06157 29.6092 1.3024 -0.366102 0.762081 -2.72324 -0.463211
790 1 3.23239 28.2313 8.25789 -0.401215 2.19581 -0.572665 -0.197131
791 1 5.01842 31.0987 7.29004 -0.410494 -0.277999 -0.0182704 0.0794744
792 1 3.94179 35.4375 3.95312 -0.404185 0.344463 0.487995 0.141966
793 1 6.24938 29.449 4.21219 -0.378246 -0.634818 -0.740688 -0.534133
794 1 12.1817 27.2389 11.108 -0.380848 -0.941591 -0.457645 1.01852
795 1 6.76322 33.4595 4.0686 -0.40278 -1.22584 -0.827974 -0.243978
796 1 5.86886 30.7295 9.78948 -0.343847 -3.18197 0.555627 -0.309602
797 1 2.1781 31.7974 6.9888 -0.402449 0.576579 0.640384 1.95635
798 1 10.8907 32.5804 6.78163 -0.354034 0.132011 0.539246 -0.0415001
799 1 8.0298 29.1671 6.57343 -0.327404 0.759072 0.177898 0.0965989
800 1 5.29094 26.8107 11.5594 -0.424138 -1.31226 0.304816 0.534376
801 1 1.53213 37.0486 3.44845 -0.40663 -0.0227591 -0.624146 0.256605
802 1 2.04041 30.3804 9.71298 -0.306559 0.425834 1.14148 -1.97232
803 1 6.65676 33.9383 1.21068 -0.336168 -1.42242 -0.78514 -0.346204
804 1 11.7524 31.0701 11.0065 -0.37695 -0.247524 -0.0308565 0.183813
805 1 6.11088 27.9603 7.95881 -0.386896 0.462158 -1.01852 -1.65078
806 1 8.21819 26.2664 9.43066 -0.394533 -0.657732 0.749618 -0.160081
807 1 1.30847 26.9049 7.08597 -0.376521 1.13111 0.0168424 1.92719
808 1 9.4792 26.9981 5.92046 -0.385883 -0.600495 -1.61093 0.755223
809 1 9.33017 28.2295 10.9675 -0.415537 0.53319 -0.216753 0.0385552
810 1 1.31169 33.3781 0.80992 -0.392176 -0.195439 -1.16411 0.183162
811 1 11.2529 28.3727 7.51206 -0.363823 -3.23207 0.456863 -1.15472
812 1 11.701 25.2191 0.60013 -0.378816 -1.69225 0.421123 1.28348
813 1 7.6249 26.9272 0.280377 -0.391267 0.591898 0.589794 1.51854
814 1 8.85789 34.4104 7.40008 -0.385575 -0.215088 0.00837761 -0.934318
815 1 2.00893 36.4313 6.88961 -0.412066 0.665923 -0.751065 0.194977
816 1 8.02205 36.1617 4.65786 -0.385658 -1.36247 -0.824626 -0.18199
817 1 5.81779 34.0712 7.70851 -0.317266 -1.2414 0.48971 0.934944
818 1 8.10822 36.0804 11.2218 -0.344113 0.650587 1.36003 -0.456286
819 1 5.94069 25.7284 5.91152 -0.431568 0.0963867 0.0505006 -0.159975
820 1 1.87863 36.5482 0.639079 -0.446745 -0.124377 -0.607858 0.66751
821 1 4.65868 36.1743 6.7314 -0.348777 -0.296749 -0.70475 -1.4055
822 1 10.3162 31.1516 0.892119 -0.32551 1.08272 -0.94643 1.3215
823 1 2.00958 35.9574 10.3324 -0.382516 -0.669011 1.08306 0.897636
824 1 5.35933 26.9479 3.14015 -0.365215 -1.24107 1.15537 -0.976028
825 1 8.56337 32.478 12.17 -0.415799 -0.316933 0.108326 0.256576
826 1 10.5065 30.701 8.65918 -0.399016 0.592672 1.30504 0.445436
827 1 2.37166 31.1195 12.1001 -0.418467 0.0466662 0.155005 0.772637
828 1 0.300145 33.658 10.0557 -0.378284 1.69436 0.560359 0.937837
829 1 9.46715 37.0174 7.56709 -0.330561 -2.22407 0.0425836 0.349727
830 1 1.41282 27.2095 4.16535 -0.409793 -0.797804 2.03488 -1.40419
831 1 9.68881 28.5763 3.55824 -0.383879 -0.19239 0.334965 0.486351
832 1 0.751791 34.1102 7.39106 -0.386076 -0.299555 -1.86448 0.42061
833 2 11.0833 27.7597 2.74461 0.189594 0.536679 0.127814 -0.466057
834 2 5.50718 30.3969 2.61163 0.191994 0.0577767 -0.482539 0.766427
835 2 0.254362 31.679 3.29212 0.201093 0.211278 0.117292 0.565826
836 2 4.27692 29.0741 4.45839 0.179257 -0.446695 0.521327 0.504721
837 2 3.63606 36.4454 11.7448 0.195917 -1.96601 -0.277744 -0.143763
838 2 6.52076 36.9568 1.99313 0.174043 0.16636 0.0481435 0.0577761
839 2 5.36354 34.024 10.8554 0.190529 0.492088 0.51182 -1.13029
840 2 5.75162 35.2025 1.63489 0.182145 -0.0642601 0.416228 0.218613
841 2 8.71616 35.9602 0.422554 0.180161 -0.105089 -0.113728 -1.20617
842 2 0.271026 25.9318 8.26078 0.17298 -1.27688 -1.02488 0.641967
843 2 5.44978 31.9663 11.1595 0.180986 0.499708 0.129772 -0.123608
844 2 3.84512 29.0621 1.06954 0.193827 -0.513104 -1.73537 -0.0164866
845 2 11.5598 35.075 4.14929 0.195266 -0.37988 -0.333311 -0.148318
846 2 2.99806 33.0513 2.14917 0.186443 -0.0374641 -0.0629154 -0.169411
847 2 9.52405 34.9295 10.5796 0.181697 0.183032 -1.42353 -0.764968
848 2 11.1766 29.7329 6.04459 0.171643 -0.407713 0.368905 -1.31252
849 2 0.687115 28.659 12.4524 0.18068 -0.651439 -0.965602 -1.05204
850 2 0.445274 30.4142 4.8773 0.194063 -1.87448 -1.04 0.326426
851 2 9.50772 34.3765 3.94293 0.198107 -0.522035 0.31211 0.416898
852 2 9.07882 30.7735 9.67941 0.183739 -0.80037 -0.0563088 0.661678
853 2 7.92721 28.722 0.812967 0.158705 -0.433897 1.79592 0.213075
854 2 4.23538 28.1154 8.20613 0.190969 -1.4944 0.137913 -0.00674804
855 2 5.26442 30.7897 8.21058 0.184132 0.111579 0.102951 -0.995788
856 2 4.43735 35.7966 3.15129 0.189035 -0.293299 -0.614753 0.548499
857 2 6.92498 29.454 4.8853 0.198091 0.426684 0.265447 0.427331
858 2 11.8848 26.5108 11.7476 0.176732 0.595505 0.872348 -0.824719
859 2 6.79903 33.4057 3.09846 0.176407 0.187121 0.291623 0.0636844
860 2 5.61094 29.8768 10.1192 0.222836 0.0752804 -0.605909 0.227803
861 2 3.10174 31.532 6.98446 0.187768 0.591544 0.123829 0.201975
862 2 11.73 33.0905 6.85442 0.193198 -0.308299 -0.232911 0.037574
863 2 8.3941 28.3398 6.16837 0.181415 0.314394 0.207188 0.48428
864 2 4.62679 27.2454 12.156 0.181623 0.85077 -0.0650743 -0.500696
865 2 0.748732 36.5716 3.85286 0.194693 1.10774 0.446288 -0.098149
866 2 1.11917 30.2003 9.72375 0.200857 -1.52211 -0.917205 0.583985
867 2 7.53532 34.0046 0.831944 0.193496 -0.00429775 -0.532973 -0.286095
868 2 11.3549 31.0933 11.9128 0.190555 0.0901018 -0.0532958 -0.642578
869 2 5.84992 27.0967 7.52863 0.183165 0.546117 1.16948 0.353564
870 2 8.81608 26.8972 9.88165 0.182891 -0.0614053 -0.112736 -0.0922684
871 2 2.16571 27.3255 7.45995 0.202682 -1.19211 -0.238652 -0.380288
872 2 10.0963 27.4211 6.53692 0.183048 0.335584 0.00917785 0.0281599
873 2 9.07849 29.179 10.9028 0.185535 -0.332051 -0.410429 0.0316732
874 2 0.648619 33.0211 1.44929 0.19937 0.337836 0.559412 -0.17359
875 2 11.1283 29.076 8.13411 0.204798 -0.307666 1.06102 0.915388
876 2 11.0323 36.923 0.596192 0.195266 0.683396 1.05387 -0.0382116
877 2 6.84607 26.7236 12.2075 0.19059 -0.989746 0.0502844 -0.346595
878 2 9.12735 35.3329 7.24236 0.186667 -0.0839649 0.324396 -0.383611
879 2 1.75876 37.3279 6.80914 0.186129 -1.21492 1.58728 -0.116576
880 2 7.37982 36.7765 5.06861 0.177421 0.475778 -0.318799 -0.0435063
881 2 5.59929 33.1802 7.45115 0.219352 -0.0251182 -0.871619 -0.258804
882 2 8.15349 37.0083 10.8568 0.195994 -0.258812 -1.22454 0.446922
883 2 5.47611 24.9437 6.31686 0.188295 0.165443 0.502947 -0.119983
884 2 0.986431 36.8822 0.423177 0.18656 0.433173 0.0210134 0.412201
885 2 4.54179 35.8328 5.78535 0.181647 -0.0155336 0.286883 1.19106
886 2 10.9492 31.1848 1.65038 0.201233 -0.248174 0.544343 -0.678785
887 2 2.52063 35.4353 9.76047 0.218081 1.06716 -0.77929 -1.29427
888 2 4.73579 27.2964 2.4254 0.184093 0.71142 -0.515286 1.13919
889 2 8.84328 33.1611 11.5541 0.184767 0.564544 0.0302718 -0.182949
890 2 10.8879 30.9549 9.58367 0.176699 -0.183467 -0.47001 -1.50407
891 2 2.15367 30.8801 11.1748 0.183391 0.229162 0.209352 -0.0159736
892 2 0.483082 33.9399 9.12988 0.171436 -0.183788 -0.168247 0.225651
893 2 8.68011 37.2395 8.14551 0.197853 1.10469 0.0387284 -0.884828
894 2 1.75765 26.3289 4.0709 0.193316 -0.174743 -1.11763 -0.519989
895 2 10.0462 29.3394 4.11404 0.189787 -0.29657 -1.20432 -0.360589
896 2 1.43691 33.3878 7.32299 0.199059 -0.368797 0.749053 -0.289558
897 2 12.2556 28.2171 1.68677 0.205024 -0.705177 -0.921028 0.72445
898 2 6.26619 31.0992 1.5661 0.194903 -0.13765 -0.130755 -0.394244
899 2 11.4908 32.733 3.13616 0.211694 -0.734438 0.537903 0.745371
900 2 2.96141 28.3291 4.59969 0.179656 -0.532784 0.0258309 0.0840926
901 2 5.05266 36.0553 11.3081 0.203196 0.0526976 -0.290292 -0.496283
902 2 7.60095 37.2717 3.02805 0.185885 0.823404 -0.714916 2.56736
903 2 5.93956 34.5764 9.35044 0.200211 -0.817158 -0.33832 1.42686
904 2 4.93458 36.3323 0.959955 0.19153 -0.350083 0.232914 -0.303287
905 2 8.9272 36.5757 1.69067 0.1834 -0.806464 1.43033 1.56419
906 2 12.0645 26.2537 9.53649 0.170968 -0.419826 0.475935 1.43116
907 2 4.16262 32.1593 11.7876 0.185212 -0.914609 0.151294 0.660247
908 2 2.67186 27.9699 1.05062 0.197304 0.410372 0.395994 0.0514428
909 2 11.8935 35.491 5.57406 0.213493 0.119433 -0.619719 2.0189
910 2 4.26751 32.1166 2.17921 0.188875 0.121637 -0.0646084 -0.105219
911 2 10.8082 34.117 10.1705 0.189213 -0.613328 -0.317661 0.0376878
912 2 10.6862 31.0978 5.43052 0.199824 0.443963 -0.640426 -0.0804399
913 2 1.49404 29.7837 0.527432 0.188967 -0.149197 0.0912505 0.383766
914 2 1.94346 30.2518 4.61825 0.203995 0.961958 -0.637514 -0.239816
915 2 10.0204 34.5179 2.46279 0.1941 -0.108134 -0.886102 1.62671
916 2 8.40782 31.3147 11.0501 0.18114 0.187332 0.690723 0.626283
917 2 8.58517 29.1833 2.01217 0.171609 -0.313608 0.696599 0.60481
918 2 3.11647 29.1677 8.4036 0.186483 -0.395591 0.16788 0.208996
919 2 5.128 30.4243 6.5959 0.199195 0.0761654 0.307692 0.831909
920 2 3.96923 34.4717 3.89324 0.201486 -0.0943522 0.226475 -0.412501
921 2 6.18375 28.521 3.89849 0.181643 0.0149803 0.363631 0.00124618
922 2 11.3941 27.8064 11.0086 0.184776 0.146753 -0.318358 0.0586313
923 2 5.95815 32.9134 4.24842 0.205138 1.13452 0.802078 0.0878527
924 2 6.79533 30.789 9.81361 0.204069 2.83884 -0.272033 0.248226
925 2 1.8362 31.4848 6.1639 0.187985 -0.935981 -0.48396 -1.44662
926 2 10.1774 33.2545 6.86947 0.185398 0.0334966 -0.266995 -0.052757
927 2 8.7461 29.562 7.13013 0.195572 -1.03776 -0.558698 -0.706458
928 2 4.83885 25.9741 11.3689 0.192615 0.424884 -0.132064 -0.00776485
929 2 2.37147 36.6076 3.68864 0.190146 -0.688674 -0.23735 0.204309
930 2 2.01055 30.9833 8.92755 0.195836 0.684255 -0.185273 0.527835
931 2 6.05113 33.3756 0.624481 0.187392 1.22356 0.727674 0.6826
932 2 12.1124 31.9401 10.7973 0.182644 0.168618 0.374446 0.13036
933 2 6.80896 28.3554 7.30858 0.173993 -1.20071 -0.315506 1.4733
934 2 7.51028 26.8735 9.10089 0.171027 0.480703 -0.787009 0.287014
935 2 1.24983 27.1388 6.17962 0.199189 -0.121099 0.312589 -1.73393
936 2 9.32245 26.0852 6.33914 0.180674 0.283108 1.5337 -0.819927
937 2 8.84522 27.789 11.6852 0.190998 -0.0267572 0.152005 -0.00854259
938 2 1.38929 34.3254 0.857735 0.2038 -0.111379 0.72826 -0.0183935
939 2 12.1208 28.1179 7.49094 0.200654 3.55422 -1.28096 0.0174885
940 2 11.3745 25.8518 1.34053 0.187566 1.25869 -1.05386 -1.57421
941 2 7.41853 26.7023 1.22883 0.193787 0.533775 -0.327084 -1.65688
942 2 9.16138 34.3053 8.28774 0.176515 0.231421 -0.545168 1.51694
943 2 2.97583 36.5457 6.88646 0.188776 0.182248 -0.867327 0.114508
944 2 7.5037 35.3277 4.48116 0.183944 0.556941 1.03677 0.335139
945 2 6.69171 34.2954 7.46669 0.206122 1.98657 -0.0963888 -0.722315
946 2 7.29777 35.6626 10.921 0.191414 -0.584404 -0.15339 -0.317315
947 2 5.44646 25.9749 5.11888 0.196835 0.141536 0.100754 0.105133
948 2 1.91783 36.4653 1.61953 0.17934 -0.342455 0.630316 -0.849562
949 2 5.04356 35.4396 7.2613 0.211481 -0.275828 -0.0704355 -0.390748
950 2 9.72444 30.4052 1.11224 0.182811 -0.362376 0.194644 -0.545859
951 2 1.74266 36.7383 9.82837 0.205259 -0.177305 -0.299474 0.140426
952 2 6.01553 26.451 2.65581 0.170521 0.412161 -0.538408 0.00239988
953 2 9.34495 32.0821 0.199532 0.198131 -0.43901 0.585568 -0.1662
954 2 10.6925 31.4389 7.96385 0.183683 -0.223173 -0.893735 1.25539
955 2 1.85903 31.903 12.3745 0.189739 0.259481 -0.000596581 -0.0446254
956 2 1.07654 34.0445 10.5869 0.186322 -2.07836 -0.635662 -1.02951
957 2 10.1788 37.2644 8.13843 0.192748 1.40609 0.411181 0.507556
958 2 0.925117 27.4401 3.28268 0.176842 0.749017 -0.953447 2.22687
959 2 9.32634 27.898 4.16984 0.200775 0.570988 0.524514 -0.293062
960 2 1.10919 34.977 7.20449 0.213706 0.832648 0.872516 -0.323273
961 1 24.278 27.4464 2.18109 -0.421497 0.22582 0.718717 -0.149996
962 1 17.8035 30.8916 1.81382 -0.360942 -0.0253809 0.18385 -0.591197
963 1 24.6145 32.2295 2.70792 -0.377785 0.674004 -0.777678 -1.40926
964 1 15.8253 29.1692 4.8403 -0.400671 1.08606 0.0635493 -0.483126
965 1 16.9878 36.6234 11.902 -0.348941 2.06669 0.478985 0.0882945
966 1 19.7865 25.0688 2.17715 -0.374833 -0.111652 0.909927 -0.71841
967 1 18.1765 34.7881 10.3075 -0.427004 0.0504068 -0.0651296 0.883706
968 1 17.7613 36.0809 1.83329 -0.357706 -0.335118 -0.148915 -0.368439
969 1 21.836 36.0265 1.0988 -0.389089 0.770878 -1.66522 -1.31706
970 1 24.5044 25.531 8.91849 -0.433777 1.49554 0.377664 -1.97437
971 1 17.4601 32.6097 11.7371 -0.328438 0.740828 -0.311148 -0.574226
972 1 16.0833 28.0796 1.08022 -0.328973 0.761914 1.57958 0.0749973
973 1 24.3255 35.7905 4.69847 -0.392264 0.355415 1.05101 -1.46314
974 1 16.3263 32.9393 2.50998 -0.462103 -1.0208 1.06656 0.342432
975 1 22.2659 34.0507 10.182 -0.36483 0.0447089 1.44229 0.445917
976 1 23.4453 30.1958 5.16706 -0.317067 0.00427125 0.278363 1.79752
977 1 13.4137 29.0099 0.838518 -0.352775 0.27548 0.116472 -0.756367
978 1 13.6823 30.8766 4.75975 -0.378366 0.177416 1.0388 -0.397871
979 1 22.5431 33.9808 3.32275 -0.357506 1.24499 0.391158 -2.75037
980 1 20.8339 30.6096 10.3884 -0.366765 0.737085 -0.632281 -1.73994
981 1 20.5044 29.609 1.29852 -0.369212 0.856835 -3.01771 -0.326476
982 1 15.6755 28.2257 8.25989 -0.403006 1.99138 -0.904186 -0.262174
983 1 17.4617 31.1011 7.29008 -0.409016 -0.480198 0.751922 0.25492
984 1 16.3868 35.4384 3.95018 -0.402365 0.458384 -0.362282 -0.107153
985 1 18.693 29.4488 4.20806 -0.380645 -0.108796 -0.902355 0.0178115
986 1 24.6265 27.2387 11.1106 -0.384739 -0.47482 -1.07105 1.17667
987 1 19.2037 33.4597 4.06982 -0.404013 -1.42288 -0.890265 0.150651
988 1 18.3156 30.7293 9.79195 -0.351769 -1.96003 0.460313 -0.172127
989 1 14.6262 31.7979 6.98911 -0.40125 -0.347901 0.750818 1.64101
990 1 23.337 32.5773 6.77952 -0.353828 0.994622 0.678133 0.0403156
991 1 20.4726 29.1678 6.56864 -0.321392 0.876099 0.619435 0.465065
992 1 17.7328 26.8115 11.5629 -0.414738 -0.972193 0.110056 0.318373
993 1 13.9764 37.0513 3.44634 -0.409504 -0.0471969 -1.33286 0.735285
994 1 14.4844 30.3795 9.70866 -0.310947 0.0255876 1.11531 -2.08442
995 1 19.1038 33.9363 1.20686 -0.34013 -1.23681 -0.862142 -0.626927
996 1 24.1938 31.0697 11.0116 -0.381451 0.128945 0.351954 -0.367939
997 1 18.553 27.9599 7.96245 -0.388901 0.670721 -0.82106 -1.76634
998 1 20.6645 26.2693 9.4306 -0.397744 -0.553522 0.739557 -0.0806723
999 1 13.7577 26.9083 7.09132 -0.38054 0.75193 -0.155222 1.60949
1000 1 21.9242 26.9978 5.91786 -0.387985 -0.165234 -1.58298 1.53578
1001 1 21.7764 28.2265 10.968 -0.417358 0.168584 0.323664 0.241888
1002 1 13.7542 33.3801 0.808859 -0.388637 -0.388913 -0.763588 0.463051
1003 1 23.6924 28.3698 7.51076 -0.360577 -1.86506 0.659339 -0.637551
1004 1 24.1466 25.2213 0.600863 -0.376993 -1.52776 -0.0210699 0.87387
1005 1 20.0741 26.9322 0.280886 -0.38469 0.386151 0.443481 1.90659
1006 1 21.3085 34.4133 7.40222 -0.387846 -0.486209 0.0503751 -1.82509
1007 1 14.4517 36.4303 6.8907 -0.410066 0.72941 -0.234197 0.115995
1008 1 20.4646 36.1589 4.66061 -0.388305 -1.54772 -1.20292 -0.331063
1009 1 18.2627 34.0669 7.70873 -0.326968 -1.80233 -0.59959 0.71009
1010 1 20.5517 36.0775 11.2236 -0.346527 0.614023 1.71265 -0.608838
1011 1 18.3899 25.731 5.91191 -0.428243 0.27289 -0.158649 0.210647
1012 1 14.324 36.5528 0.63951 -0.448507 0.440511 -0.829612 0.738159
1013 1 17.1048 36.1677 6.73239 -0.351373 -0.472777 -0.300756 -1.51453
1014 1 22.7645 31.1489 0.890333 -0.3252 0.701379 -0.77182 0.713615
1015 1 14.4562 35.9574 10.3268 -0.388601 -0.981677 1.00619 1.83529
1016 1 17.8064 26.9494 3.14215 -0.366854 -1.95756 1.672 -0.49978
1017 1 21.0071 32.4787 12.1692 -0.411203 -0.925684 0.281813 -0.0727451
1018 1 22.955 30.7011 8.65791 -0.391339 0.500136 1.15383 0.342636
1019 1 14.8135 31.1206 12.0987 -0.416665 -0.231275 0.725149 1.19826
1020 1 12.7462 33.6614 10.0561 -0.377578 1.84675 0.615411 1.236
1021 1 21.9124 37.0198 7.56693 -0.329251 -0.989346 0.383048 1.18816
1022 1 13.8518 27.2091 4.1647 -0.412929 -0.704904 1.95056 -1.29315
1023 1 22.1338 28.5785 3.56247 -0.387913 -0.0493655 0.559591 0.397329
1024 1 13.1932 34.1075 7.39285 -0.391365 0.30155 -1.74754 0.280979
1025 2 23.5394 27.7502 2.75118 0.190702 0.324879 0.247772 -0.336947
1026 2 17.9564 30.3957 2.60352 0.19323 0.107514 -0.682 1.11224
1027 2 12.6828 31.6936 3.28821 0.203419 0.836771 -0.548166 1.24911
1028 2 16.7246 29.078 4.45739 0.179847 -0.639068 0.497808 0.564448
1029 2 16.0904 36.4534 11.7524 0.196047 -2.60085 -0.360763 -0.205066
1030 2 18.9909 36.9556 1.99329 0.17698 -0.329922 -0.243974 -0.0234227
1031 2 17.8055 34.0303 10.8609 0.192783 0.485701 0.419291 -1.11594
1032 2 18.1939 35.211 1.64503 0.182933 0.0457199 0.0986023 0.0582215
1033 2 21.1624 35.9608 0.389766 0.176987 0.631436 0.0133411 -0.31285
1034 2 12.716 25.9458 8.27107 0.171195 -1.28078 -1.16668 0.58678
1035 2 17.9174 31.9704 11.1444 0.180214 0.028786 0.342339 0.170171
1036 2 16.282 29.0645 1.06335 0.193161 -0.429321 -1.75747 0.00180216
1037 2 23.9956 35.0867 4.152 0.193676 -0.470655 -0.511569 -0.379183
1038 2 15.4372 33.0673 2.13807 0.184477 0.597961 -0.167565 0.0840218
1039 2 21.9741 34.92 10.5699 0.184707 -0.0383626 -0.898185 -0.518092
1040 2 23.6252 29.7231 6.04154 0.171408 -0.423658 0.426157 -1.38969
1041 2 13.1274 28.6552 12.4553 0.18092 -0.510852 -0.804297 -0.991284
1042 2 12.8708 30.413 4.89448 0.192035 -1.08111 -0.649524 0.171402
1043 2 21.9611 34.3697 3.93938 0.200326 -1.06781 0.665632 0.991511
1044 2 21.5262 30.776 9.68461 0.184614 -0.806635 -0.112004 0.59328
1045 2 20.3466 28.7244 0.78981 0.157722 -0.224536 2.01413 0.573735
1046 2 16.6687 28.1197 8.19542 0.191623 -1.14532 0.0298706 0.00829013
1047 2 17.7067 30.7953 8.1958 0.187454 0.232958 -0.0563833 -0.499317
1048 2 16.8867 35.7877 3.13473 0.186247 -0.401051 -0.655368 0.747343
1049 2 19.3842 29.4493 4.89007 0.195569 -0.187907 0.227863 -0.179679
1050 2 24.3268 26.4945 11.7462 0.177918 0.622567 1.18936 -0.977313
1051 2 19.2539 33.4328 3.10251 0.178934 0.00966243 0.120768 -0.0493857
1052 2 18.0504 29.8794 10.1387 0.221639 0.188478 -0.331304 0.11415
1053 2 15.538 31.5435 6.99332 0.190946 1.26642 -0.0985559 0.121873
1054 2 24.1856 33.1019 6.85158 0.190292 -0.761632 -0.609201 -0.0208472
1055 2 20.8473 28.3499 6.18172 0.180788 0.417111 -0.219469 0.199623
1056 2 17.0895 27.2524 12.1613 0.184637 0.545812 0.0921076 -0.274276
1057 2 13.1692 36.5665 3.85644 0.190906 1.73707 0.816309 -0.380783
1058 2 13.5556 30.1962 9.71986 0.199475 -1.05142 -0.766262 0.524469
1059 2 19.9892 33.9968 0.828157 0.191581 -0.261468 -0.545374 -0.150852
1060 2 23.7916 31.0971 11.904 0.19143 -0.0398514 -0.0253079 -0.222924
1061 2 18.2882 27.1069 7.52591 0.182628 0.469417 0.954303 0.334219
1062 2 21.2563 26.9038 9.8868 0.182379 -0.0432811 -0.15065 -0.104224
1063 2 14.6065 27.3172 7.46116 0.203856 -0.890956 -0.0642396 -0.281151
1064 2 22.5545 27.4197 6.5503 0.179736 -0.129608 -0.245839 -0.491512
1065 2 21.5121 29.1893 10.9216 0.182606 -0.124753 -0.9835 -0.0326731
1066 2 13.0896 33.0166 1.46151 0.199322 0.617886 0.774886 -0.456818
1067 2 23.5604 29.0901 8.13853 0.201513 -0.202533 0.430187 0.33776
1068 2 23.4829 36.9255 0.577984 0.196295 0.549077 0.88369 0.00944332
1069 2 19.2589 26.7246 12.1905 0.185409 0.0887991 0.342154 0.43271
1070 2 21.5937 35.3293 7.25161 0.187585 -0.0965646 0.483496 -0.485584
1071 2 14.2001 37.3341 6.79366 0.184543 -1.06817 1.09271 -0.0598407
1072 2 19.8235 36.774 5.07021 0.177183 0.43283 -0.317731 -0.0219011
1073 2 18.0252 33.1626 7.43038 0.217595 0.305893 0.180158 0.050125
1074 2 20.581 37.0172 10.8587 0.194535 -0.231831 -1.58346 0.588722
1075 2 17.9278 24.9426 6.3125 0.187411 0.208356 0.521926 -0.0633761
1076 2 13.4453 36.8697 0.396073 0.190338 -0.0311707 0.195517 0.403135
1077 2 16.9897 35.8428 5.78287 0.183643 0.0140744 0.14863 1.15657
1078 2 23.3803 31.1881 1.64199 0.203798 0.176601 0.560089 -0.147799
1079 2 14.9654 35.4431 9.76818 0.221583 1.55735 -1.24701 -1.85489
1080 2 17.1791 27.3035 2.42961 0.185985 0.838607 -0.604792 1.1449
1081 2 21.2914 33.1539 11.5499 0.186098 0.601037 0.129978 -0.245749
1082 2 23.3357 30.9445 9.57356 0.178067 -0.0918217 -0.391916 -1.2189
1083 2 14.5897 30.869 11.1855 0.18349 0.198492 0.152923 -0.290316
1084 2 12.9344 33.945 9.1359 0.171468 -0.161253 -0.135312 0.0531465
1085 2 21.1284 37.2308 8.15064 0.196996 1.07242 0.0800383 -0.864959
1086 2 14.2134 26.3309 4.06423 0.194188 -0.316682 -0.86946 -0.572694
1087 2 22.4959 29.3448 4.11802 0.189096 -0.333995 -1.29723 -0.421332
1088 2 13.8958 33.3826 7.32312 0.195903 -0.761246 1.03885 -0.247883
1089 2 24.6981 28.211 1.68443 0.205703 -0.693829 -0.84679 0.751617
1090 2 18.7067 31.097 1.56399 0.19563 0.160199 -0.0496058 -0.474887
1091 2 23.9559 32.744 3.14483 0.210461 -0.913851 0.657038 0.892209
1092 2 15.3982 28.3434 4.60661 0.181752 -0.681957 -0.434467 -0.06255
1093 2 17.4868 36.0482 11.2983 0.202741 -0.0382935 -0.066644 -0.291085
1094 2 20.048 37.29 3.03 0.187916 0.860862 -0.7387 2.68657
1095 2 18.3838 34.5702 9.37372 0.202739 -0.625021 -0.503939 0.554778
1096 2 17.3711 36.3492 0.947357 0.191224 -0.0101941 -0.0609032 0.328326
1097 2 21.3745 36.5671 1.69083 0.182955 -0.960996 1.50751 1.62917
1098 2 24.5153 26.2444 9.54785 0.171068 -0.348966 0.39377 1.23519
1099 2 16.6094 32.1716 11.8102 0.186278 -0.770963 0.0210929 0.51496
1100 2 15.1197 27.9851 1.06349 0.196687 0.0176412 0.256857 0.0314361
1101 2 24.3374 35.4771 5.57051 0.211172 0.11332 -0.481696 1.72079
1102 2 16.7117 32.1353 2.16086 0.190317 0.346056 -0.57648 -0.287255
1103 2 23.2375 34.1125 10.1853 0.191616 -0.0235633 -0.304283 -0.00452594
1104 2 23.1131 31.0874 5.43355 0.200476 0.491307 -0.652255 -0.0992389
1105 2 13.9413 29.7776 0.536806 0.190112 0.00869226 0.377533 0.275657
1106 2 14.3903 30.2484 4.61563 0.203562 0.820322 -0.597808 -0.208867
1107 2 22.4733 34.5273 2.47191 0.195426 -0.148265 -0.89483 1.56869
1108 2 20.8583 31.3168 11.0403 0.181707 0.145962 0.838327 0.833222
1109 2 21.0237 29.1797 2.02491 0.169699 -0.585434 0.773346 0.118719
1110 2 15.5624 29.1528 8.41128 0.18763 -0.509987 0.636779 0.301785
1111 2 17.5575 30.4359 6.61052 0.202504 0.18576 -0.30925 0.160568
1112 2 16.4107 34.4511 3.89368 0.198598 -0.11361 1.16135 -0.362828
1113 2 18.6049 28.5135 3.90546 0.179193 0.103623 0.549252 0.0630868
1114 2 23.8582 27.8093 11.0007 0.187811 -0.345444 -0.0448879 0.059243
1115 2 18.3899 32.9141 4.26713 0.20705 1.51243 1.01761 -0.226802
1116 2 19.2645 30.8014 9.8427 0.200979 1.5263 -0.444051 0.212595
1117 2 14.2667 31.4677 6.16808 0.187624 -0.691176 -0.358533 -1.09195
1118 2 22.643 33.2515 6.8992 0.183974 -0.36138 -0.0251582 -0.0790567
1119 2 21.1964 29.5637 7.12588 0.194343 -1.26418 -0.589374 -0.811283
1120 2 17.2776 25.9719 11.3905 0.193962 0.415486 -0.132938 -0.015883
1121 2 14.8244 36.5974 3.70493 0.186221 -1.27765 0.0735517 -0.00871394
1122 2 14.4627 30.981 8.91564 0.193859 0.611281 -0.317902 0.707864
1123 2 18.499 33.3754 0.607254 0.185793 1.31178 0.818193 0.863664
1124 2 24.5718 31.9417 10.7956 0.181843 -0.0493674 -0.0375744 0.259018
1125 2 19.2618 28.3414 7.30711 0.172309 -1.32678 -0.271171 1.60394
1126 2 19.9531 26.8748 9.11569 0.171307 0.372868 -0.732506 0.195153
1127 2 13.6801 27.1572 6.1875 0.199693 -0.0772011 0.271687 -1.56022
1128 2 21.7547 26.0894 6.36778 0.175652 0.343086 1.7616 -1.08316
1129 2 21.2809 27.7841 11.6852 0.188358 0.115189 0.185902 -0.158817
1130 2 13.8385 34.3396 0.846124 0.202891 -0.19304 0.121526 0.0051288
1131 2 24.5842 28.1149 7.50609 0.196487 2.08388 -0.854781 0.0514431
1132 2 23.8318 25.8333 1.34571 0.19069 1.00998 -0.85493 -1.30333
1133 2 19.8585 26.7027 1.23853 0.191678 0.697395 -0.2215 -2.00018
1134 2 21.5922 34.3118 8.27783 0.180119 0.500679 -0.723878 2.51173
1135 2 15.4229 36.5477 6.86714 0.187762 -0.0201636 -0.91032 0.169535
1136 2 19.9371 35.3188 4.46912 0.181088 0.789807 1.41173 0.469949
1137 2 19.1339 34.291 7.47273 0.205493 2.19247 -0.0821584 -0.80843
1138 2 19.7365 35.6573 10.9379 0.190334 -0.553638 -0.133759 -0.317595
1139 2 17.892 25.9626 5.12908 0.197485 -0.0822367 0.284667 -0.323837
1140 2 14.3628 36.4785 1.62218 0.181422 -0.441096 0.658552 -0.887421
1141 2 17.4891 35.4435 7.26371 0.212498 -0.149525 -0.332751 -0.283633
1142 2 22.1657 30.4123 1.10378 0.184233 -0.495222 -0.000273283 -0.461895
1143 2 14.1896 36.7332 9.84185 0.209031 -0.351574 0.25062 -0.247031
1144 2 18.4657 26.4641 2.68251 0.175008 0.979927 -0.964857 -0.504517
1145 2 21.8014 32.0804 0.199702 0.196955 -0.758714 0.730136 -0.34705
1146 2 23.1492 31.4428 7.97653 0.184073 -0.22915 -0.833076 1.07275
1147 2 14.2989 31.9251 12.3594 0.188069 0.55407 -0.481762 -0.150498
1148 2 13.5286 34.0461 10.5944 0.185965 -2.27838 -0.715515 -1.16905
1149 2 22.6478 37.2816 8.1517 0.188607 0.254804 0.0327945 -0.37243
1150 2 13.3667 27.4641 3.28891 0.178323 0.779636 -1.11468 2.17843
1151 2 21.7899 27.8978 4.17415 0.201411 0.446012 0.37318 -0.149935
1152 2 13.561 34.9814 7.20974 0.211471 0.627482 0.473973 -0.234943
1153 1 11.8303 39.8912 2.17775 -0.42302 -0.0216578 0.553702 0.0420545
1154 1 5.35821 43.3346 1.80918 -0.358302 0.594425 0.671126 -1.26024
1155 1 12.1706 44.6771 2.70499 -0.369727 -0.285968 0.0669459 -1.36537
1156 1 3.38227 41.6167 4.83935 -0.401413 0.560415 -0.495917 -0.495926
1157 1 4.54164 49.0652 11.8981 -0.348351 1.07262 1.35938 1.04034
1158 1 7.34075 37.512 2.179 -0.376632 -0.73062 1.0639 -1.93047
1159 1 5.73056 47.2342 10.3104 -0.429312 0.43599 0.234269 0.0362029
1160 1 5.32064 48.5244 1.83021 -0.358724 0.0197691 -0.736678 0.0738564
1161 1 9.39003 48.4714 1.09794 -0.384082 0.79717 -1.18492 -0.334781
1162 1 12.0604 37.9748 8.91946 -0.435819 1.02137 -0.493268 -2.02986
1163 1 5.01015 45.055 11.7405 -0.334465 1.16341 0.454556 -0.279801
1164 1 3.64016 40.528 1.07763 -0.330577 0.23067 0.522028 0.0333958
1165 1 11.8828 48.237 4.69809 -0.392545 0.399375 1.07876 -1.08756
1166 1 3.88181 45.3846 2.50693 -0.460598 -0.77263 0.774415 0.237087
1167 1 9.81946 46.4951 10.1786 -0.360791 0.550985 1.68569 0.46915
1168 1 10.9963 42.6436 5.17001 -0.321791 0.232405 -0.0064448 1.61184
1169 1 0.970573 41.4533 0.837816 -0.360572 0.80482 0.899951 -0.917959
1170 1 1.24122 43.325 4.75945 -0.377273 -1.12957 0.345195 -0.206887
1171 1 10.1008 46.4219 3.3222 -0.354335 0.8961 0.689 -2.45025
1172 1 8.38775 43.0551 10.39 -0.366223 0.511321 -1.11566 -1.96093
1173 1 8.06002 42.0552 1.30112 -0.368288 0.361624 -2.71074 -1.07463
1174 1 3.22708 40.6743 8.25896 -0.401106 2.11979 -0.74991 -0.191082
1175 1 5.02 43.5418 7.28881 -0.412125 -0.58969 0.923527 -0.167703
1176 1 3.94212 47.8852 3.95291 -0.394707 0.297427 0.0799185 0.159621
1177 1 6.24703 41.8909 4.20974 -0.382888 -0.0900854 -0.831043 0.0252564
1178 1 12.1791 39.6853 11.1148 -0.382383 -0.0533528 -1.06879 1.0805
1179 1 6.75894 45.9061 4.07126 -0.406134 -1.17294 -0.76279 -0.205712
1180 1 5.8695 43.1776 9.78882 -0.356491 -2.24725 0.427611 -0.192247
1181 1 2.1794 44.2449 6.98927 -0.405587 -0.46935 0.774199 1.6171
1182 1 10.8923 45.0247 6.77829 -0.354975 0.59479 0.459756 0.00123156
1183 1 8.02568 41.6124 6.57013 -0.323947 0.404736 0.236088 -0.00736779
1184 1 5.28508 39.2563 11.562 -0.421974 -0.687961 -0.0324302 0.0848201
1185 1 1.5301 49.4947 3.44957 -0.412303 0.616764 -0.985983 0.484238
1186 1 2.04279 42.8245 9.71036 -0.309839 -1.05801 0.487681 -1.51249
1187 1 6.66089 46.3872 1.20982 -0.334088 -2.05947 -1.14544 -0.486589
1188 1 11.7516 43.5155 11.0083 -0.377375 0.18642 0.191851 -0.600458
1189 1 6.1106 40.4035 7.95778 -0.388318 0.490936 -1.19425 -1.94864
1190 1 8.21678 38.7129 9.43147 -0.396272 -0.38415 0.705034 -0.015684
1191 1 1.30826 39.3564 7.08751 -0.383342 1.09182 -0.0237563 1.72758
1192 1 9.47921 39.443 5.92345 -0.387391 -0.590238 -1.93083 1.27282
1193 1 9.32991 40.6761 10.9684 -0.419496 0.327523 -0.160851 0.204982
1194 1 1.31033 45.8255 0.810588 -0.390339 -0.189366 -0.935815 0.189713
1195 1 11.2504 40.8134 7.51023 -0.365326 -2.12892 0.879633 -0.460296
1196 1 11.7 37.6652 0.599113 -0.378224 -1.61621 -0.150496 0.8792
1197 1 7.62914 39.3754 0.282055 -0.387502 -0.124086 0.423196 1.13276
1198 1 8.8594 46.8538 7.40372 -0.386269 -0.192917 -0.125886 -0.673739
1199 1 2.01116 48.873 6.89331 -0.409404 0.32868 -0.135267 0.123308
1200 1 8.02005 48.6052 4.66087 -0.3829 -1.5669 -0.261231 0.0313207
1201 1 5.82214 46.5123 7.7113 -0.324938 -1.55645 0.708233 1.14958
1202 1 8.1128 48.5251 11.2163 -0.342853 -0.251944 0.458131 -0.547575
1203 1 5.94124 38.1732 5.91119 -0.430122 0.693664 -0.0373929 0.534083
1204 1 1.88128 48.9918 0.643173 -0.44658 -0.0221108 -0.618262 0.00805812
1205 1 4.6559 48.6128 6.73113 -0.351307 -0.513734 -0.133318 -1.66229
1206 1 10.3215 43.5923 0.887218 -0.321548 0.743376 -1.01527 1.04923
1207 1 2.01039 48.4077 10.3311 -0.383461 -0.759903 1.20007 0.895018
1208 1 5.36085 39.3948 3.1398 -0.36607 -1.33732 1.1573 -1.16475
1209 1 8.55842 44.9226 12.1685 -0.415259 -0.295473 0.256645 0.12134
1210 1 10.5115 43.1445 8.66007 -0.3957 0.538117 1.31777 0.188964
1211 1 2.36757 43.5651 12.098 -0.418954 -0.0688363 0.558199 1.37164
1212 1 0.297609 46.1018 10.0493 -0.373885 1.81817 0.714071 1.01894
1213 1 9.47049 49.4635 7.56863 -0.333915 -1.37656 0.205966 0.956333
1214 1 1.41156 39.6537 4.17037 -0.41127 -0.727801 1.70266 -1.43193
1215 1 9.69038 41.0256 3.56201 -0.385247 -0.379494 -0.20141 -0.106653
1216 1 0.748765 46.552 7.38669 -0.387804 -0.453585 -1.39973 0.399981
1217 2 11.0838 40.2023 2.74127 0.190885 0.499802 0.199506 -0.439627
1218 2 5.51319 42.8471 2.59222 0.193915 0.17578 -0.994928 1.58756
1219 2 0.240765 44.1295 3.28707 0.202432 0.677676 -0.374042 1.05782
1220 2 4.27863 41.5268 4.46752 0.179876 -0.345833 0.485601 0.426059
1221 2 3.63573 48.9054 11.7593 0.198935 -2.26148 -0.377628 -0.218466
1222 2 6.53429 49.4058 1.99001 0.175901 -0.168629 -0.184222 0.0070707
1223 2 5.37094 46.4831 10.854 0.1938 0.29599 0.0862248 -0.872433
1224 2 5.7373 47.6346 1.63582 0.18296 -0.0427824 0.540041 0.152908
1225 2 8.71064 48.3957 0.417069 0.178542 0.226871 -0.0864964 -0.861828
1226 2 0.274161 38.3734 8.28645 0.174724 -0.892852 -0.889858 0.118756
1227 2 5.44764 44.421 11.1574 0.182389 0.597226 -0.0905658 -0.328019
1228 2 3.83803 41.4885 1.05523 0.196485 -0.287151 -0.819997 -0.00169228
1229 2 11.5573 47.5408 4.14374 0.194256 -0.502797 -0.610541 -0.426223
1230 2 2.99449 45.4873 2.13372 0.183574 0.372264 -0.0440795 0.051897
1231 2 9.52976 47.3761 10.5546 0.183714 -0.00302324 -1.09182 -0.550785
1232 2 11.1869 42.1758 6.03955 0.171773 -0.437157 0.325256 -1.24638
1233 2 0.680416 41.0862 12.4154 0.173477 0.0248375 -0.16162 0.708732
1234 2 0.413149 42.8319 4.8883 0.187836 0.0709506 0.127828 -0.0028717
1235 2 9.50856 46.8152 3.93852 0.1986 -0.757726 0.429908 0.720074
1236 2 9.06312 43.2242 9.68458 0.18607 -0.529405 -0.0700412 0.371491
1237 2 7.90888 41.1652 0.79805 0.157724 -0.310667 2.0467 0.447254
1238 2 4.22386 40.5494 8.21316 0.191565 -1.32344 0.123671 -0.0180316
1239 2 5.26357 43.2343 8.18118 0.188186 0.330759 -0.208165 -0.0643372
1240 2 4.44637 48.2189 3.15562 0.186185 -0.200999 -0.269828 0.356069
1241 2 6.92848 41.8927 4.90123 0.195216 -0.169432 0.213196 -0.185505
1242 2 11.8757 38.9563 11.7486 0.178092 0.604098 0.847724 -0.772406
1243 2 6.79392 45.8727 3.09954 0.17707 0.109687 0.203183 0.12528
1244 2 5.61246 42.3254 10.1346 0.221662 0.196506 -0.344899 0.12137
1245 2 3.08801 43.993 6.98672 0.19085 1.45679 -0.121283 0.178254
1246 2 11.7328 45.547 6.85582 0.192823 -0.586349 -0.374409 0.0152023
1247 2 8.40609 40.791 6.1862 0.181225 0.362282 -0.0699225 0.273173
1248 2 4.64888 39.7002 12.1565 0.18669 0.333089 0.0548951 -0.173558
1249 2 0.736542 49.0331 3.85684 0.193416 1.19671 0.41897 -0.134927
1250 2 1.09452 42.6174 9.73027 0.198177 0.207209 -0.407 0.387541
1251 2 7.52475 46.4458 0.820432 0.193138 0.512773 -0.430309 -0.414672
1252 2 11.3524 43.5318 11.8942 0.192152 -0.157651 -0.00104046 0.0723296
1253 2 5.84171 39.5399 7.517 0.181056 0.605578 1.3668 0.502944
1254 2 8.81795 39.3361 9.90036 0.18272 -0.238924 -0.188198 -0.248013
1255 2 2.17499 39.7503 7.46648 0.203607 -1.25091 -0.124309 -0.43077
1256 2 10.0911 39.863 6.55986 0.181012 0.1674 -0.124916 -0.207005
1257 2 9.06864 41.6292 10.9017 0.185302 -0.268519 -0.676774 0.0745863
1258 2 0.634851 45.46 1.43691 0.201276 0.432441 0.703203 -0.194831
1259 2 11.1237 41.5309 8.14959 0.201579 -0.147387 0.266409 0.166002
1260 2 11.0295 49.3594 0.577695 0.19635 0.812915 1.30875 0.0904278
1261 2 6.82991 39.1749 12.1803 0.18788 -0.20514 0.268002 0.318431
1262 2 9.12933 47.7745 7.26301 0.185477 -0.0284274 0.530251 -0.539397
1263 2 1.7681 49.7808 6.79961 0.183859 -1.14801 1.05246 -0.0506742
1264 2 7.36603 49.2194 5.0786 0.175232 0.786074 -0.547796 -0.211708
1265 2 5.60037 45.6286 7.45549 0.219737 -0.0679779 -1.17145 -0.35646
1266 2 8.14069 49.4438 10.8643 0.196159 -0.170011 -0.681998 0.254553
1267 2 5.49147 37.3898 6.31899 0.189994 0.0500561 0.348512 -0.0519163
1268 2 0.99836 49.3319 0.406703 0.189469 0.354332 0.0233495 0.50935
1269 2 4.54154 48.2837 5.78577 0.183153 -0.0308462 0.211406 1.04939
1270 2 10.9379 43.6138 1.64511 0.201955 0.120456 0.648479 -0.348527
1271 2 2.51925 47.8842 9.75967 0.218401 1.08567 -0.777005 -1.3409
1272 2 4.73174 39.7408 2.41836 0.18371 0.899652 -0.596663 1.30724
1273 2 8.8535 45.6107 11.5638 0.183454 0.467284 0.0105953 -0.202329
1274 2 10.8875 43.3965 9.57559 0.177224 -0.108431 -0.420502 -1.25388
1275 2 2.14986 43.3344 11.1829 0.183727 0.125633 0.0802485 -0.476542
1276 2 0.492006 46.3952 9.1297 0.170315 -0.262598 -0.234452 0.158539
1277 2 8.68119 49.6667 8.14756 0.197112 1.08143 0.108142 -0.866304
1278 2 1.74713 38.7609 4.08305 0.192013 -0.330317 -0.736477 -0.529759
1279 2 10.0415 41.7697 4.10381 0.193023 -0.0216753 -0.541814 0.0762941
1280 2 1.42158 45.8282 7.31514 0.20001 -0.129101 0.582526 -0.298455
1281 2 12.2554 40.6396 1.67346 0.206554 -0.624299 -0.624411 0.668757
1282 2 6.27471 43.5569 1.56444 0.193697 -0.526691 -0.229477 -0.288451
1283 2 11.5 45.1878 3.1583 0.208831 -0.46099 0.33392 0.418877
1284 2 2.96515 40.7687 4.61399 0.180408 -0.448063 0.141121 0.0741703
1285 2 5.04303 48.519 11.3163 0.206364 0.573803 -0.945468 -1.19025
1286 2 7.59891 49.7242 3.04574 0.184582 0.574099 -0.529328 1.80443
1287 2 5.94891 47.022 9.36243 0.201889 -0.772691 -0.432047 1.11304
1288 2 4.91805 48.7823 0.967665 0.191713 -0.220208 0.137233 -0.179628
1289 2 8.92099 49.0288 1.6874 0.180879 -0.569437 1.14762 1.22918
1290 2 12.0718 38.686 9.52749 0.174679 -0.388122 1.00543 1.8321
1291 2 4.1824 44.6133 11.8102 0.188696 -1.746 -0.318512 0.696203
1292 2 2.6693 40.4222 1.0432 0.198319 0.396892 0.362431 0.0595402
1293 2 11.8913 47.9164 5.57281 0.21083 0.095036 -0.410786 1.41302
1294 2 4.26858 44.5766 2.15514 0.188132 0.323255 -0.37656 -0.145324
1295 2 10.8035 46.5636 10.176 0.18948 -0.549581 -0.361276 -0.00382512
1296 2 10.6907 43.5333 5.43911 0.200232 0.309299 -0.274487 -0.0120951
1297 2 1.50772 42.2443 0.525076 0.186245 -0.53898 -0.470362 0.475904
1298 2 1.94631 42.6961 4.62256 0.201817 0.957826 -0.669338 -0.251826
1299 2 10.0298 46.9808 2.47804 0.193436 -0.10909 -0.966672 1.53932
1300 2 8.42183 43.7514 11.0351 0.18358 0.125269 1.28736 1.23598
1301 2 8.57438 41.63 2.00037 0.173876 -0.036694 0.423875 0.972678
1302 2 3.1246 41.6069 8.41714 0.187333 -0.459131 0.348154 0.241601
1303 2 5.1164 42.884 6.60393 0.203075 0.176788 -0.350191 0.126512
1304 2 3.97031 46.9172 3.86795 0.198853 -0.182099 0.323885 -0.232914
1305 2 6.16624 40.9585 3.90063 0.179845 0.0793623 0.501829 0.061921
1306 2 11.4107 40.2361 10.9938 0.188827 -0.72309 0.327488 -0.0481673
1307 2 5.96034 45.3543 4.26311 0.206536 1.15853 0.808049 -0.0294531
1308 2 6.81243 43.2524 9.8222 0.201239 1.77369 -0.397922 0.260186
1309 2 1.82982 43.9156 6.16493 0.187235 -0.790144 -0.37339 -1.13787
1310 2 10.1724 45.6797 6.87707 0.186616 -0.130833 -0.0253865 -0.0436233
1311 2 8.72723 42.0151 7.12184 0.197945 -0.736448 -0.340713 -0.439373
1312 2 4.85718 38.4019 11.3816 0.194668 0.331439 0.037531 0.11006
1313 2 2.37984 49.0306 3.69385 0.187289 -1.38966 0.148343 0.00274863
1314 2 2.0295 43.4228 8.93264 0.194885 0.44799 -0.0290895 0.280304
1315 2 6.05792 45.814 0.611675 0.185074 1.33001 0.948948 0.959763
1316 2 12.1193 44.3889 10.7981 0.183342 0.0267518 0.109542 0.213889
1317 2 6.80266 40.7979 7.29201 0.172343 -1.27711 -0.339269 1.63688
1318 2 7.51448 39.3179 9.09784 0.172348 0.389592 -0.644804 0.254843
1319 2 1.25 39.5981 6.17906 0.198345 -0.0663376 0.266392 -1.50099
1320 2 9.29008 38.5257 6.36381 0.176096 0.496947 1.99754 -1.10383
1321 2 8.84757 40.2243 11.69 0.190462 0.0928607 0.329711 -0.196491
1322 2 1.38874 46.7807 0.840598 0.204133 -0.195932 0.352933 0.0307876
1323 2 12.1375 40.5545 7.48911 0.196614 2.28815 -0.901176 0.0570533
1324 2 11.388 38.2824 1.33389 0.189257 1.01506 -0.7089 -1.15049
1325 2 7.42583 39.1565 1.23569 0.192808 0.540313 -0.314592 -1.76082
1326 2 9.15558 46.7555 8.2975 0.175124 0.165221 -0.62805 1.38566
1327 2 2.97183 48.9976 6.8748 0.188772 0.414539 -0.954322 0.160432
1328 2 7.49673 47.7868 4.47001 0.183644 0.452528 0.725506 0.296833
1329 2 6.6844 46.7447 7.46076 0.207111 2.33407 -0.0221472 -0.84949
1330 2 7.27513 48.1057 10.9253 0.18867 0.220092 0.18448 -0.029395
1331 2 5.46173 38.3954 5.12463 0.19961 -0.355754 0.36585 -0.680047
1332 2 1.91907 48.9034 1.60999 0.183407 -0.385335 0.620728 -0.282681
1333 2 5.03709 47.8852 7.2436 0.211098 -0.0167187 -0.539328 0.0241219
1334 2 9.72904 42.8488 1.11451 0.182901 -0.448343 0.187502 -0.630927
1335 2 1.72447 49.1843 9.82562 0.204665 -0.112717 -0.423092 0.185169
1336 2 6.02369 38.8934 2.66481 0.170256 0.32096 -0.462579 0.0158472
1337 2 9.36062 44.5447 0.209072 0.198131 -0.681215 0.602451 -0.2972
1338 2 10.7053 43.8885 7.97096 0.182461 -0.261017 -0.96935 1.2126
1339 2 1.85577 44.357 12.3803 0.190086 0.4573 -0.281605 -0.162213
1340 2 1.06977 46.5026 10.5825 0.18473 -2.14024 -0.717309 -1.01742
1341 2 10.1924 49.7136 8.15932 0.189618 0.605482 0.160228 -0.126952
1342 2 0.912659 39.887 3.29245 0.177027 0.839658 -1.00159 2.2637
1343 2 9.34425 40.3443 4.17129 0.20268 0.446428 0.365473 -0.148856
1344 2 1.10971 47.427 7.21865 0.215054 0.760107 0.603715 -0.31016
1345 1 24.275 39.8949 2.18238 -0.418688 0.72024 0.185941 -0.480555
1346 1 17.8035 43.3335 1.8107 -0.354199 0.0386367 0.0988623 -0.418961
1347 1 24.614 44.6727 2.70999 -0.376485 0.0213827 -0.150029 -1.76117
1348 1 15.8259 41.6165 4.84021 -0.401959 1.58179 -0.367376 -0.850921
1349 1 16.9856 49.0635 11.8992 -0.353611 1.06319 0.59281 0.212696
1350 1 19.7841 37.5146 2.17995 -0.374199 -0.250197 1.40894 -1.945
1351 1 18.1731 47.2334 10.3098 -0.424192 0.291564 0.0463589 0.307078
1352 1 17.7638 48.5244 1.83145 -0.350433 -0.247817 -0.275721 -0.163623
1353 1 21.8338 48.4756 1.10361 -0.386597 0.750965 -1.65433 -1.27132
1354 1 24.5077 37.975 8.92008 -0.430969 1.18156 0.213109 -1.58785
1355 1 17.4547 45.0573 11.741 -0.329409 -0.0347924 -0.389325 -0.353517
1356 1 16.0897 40.5236 1.08169 -0.32667 0.596382 1.78891 0.0177548
1357 1 24.3247 48.2373 4.69885 -0.394814 0.273062 1.22676 -2.41628
1358 1 16.3283 45.3873 2.50865 -0.465719 0.256853 0.0646049 0.279536
1359 1 22.2655 46.4933 10.1785 -0.365046 0.81008 1.83425 0.563476
1360 1 23.4467 42.642 5.16751 -0.314552 0.177588 -0.00754162 1.67243
1361 1 13.4121 41.453 0.841042 -0.356723 0.993327 1.05816 -0.825584
1362 1 13.6852 43.3247 4.76146 -0.366233 -0.731859 1.1343 -0.212263
1363 1 22.5475 46.4272 3.32092 -0.354773 1.25891 0.345118 -2.75614
1364 1 20.8353 43.0525 10.388 -0.377471 1.02879 -0.642473 -2.1191
1365 1 20.5056 42.0549 1.29595 -0.368706 0.559141 -2.7879 -0.687246
1366 1 15.6728 40.6784 8.26107 -0.401725 2.07789 -0.31584 -0.157697
1367 1 17.4628 43.5428 7.2919 -0.40724 -0.486988 0.268185 -0.822275
1368 1 16.3826 47.885 3.94768 -0.399513 0.355672 0.156561 0.0896392
1369 1 18.6956 41.8923 4.20977 -0.375296 -0.339301 -0.535635 -0.18181
1370 1 24.6251 39.6827 11.1117 -0.380183 -0.93111 -0.624006 1.15942
1371 1 19.2049 45.9023 4.07024 -0.404763 -1.19774 -0.740879 -0.459278
1372 1 18.3145 43.1763 9.79139 -0.350497 -2.1815 0.8465 -0.355329
1373 1 14.6256 44.2459 6.98897 -0.404258 -0.662798 0.539296 0.98072
1374 1 23.3337 45.0249 6.78276 -0.353721 1.14094 0.848517 0.0337471
1375 1 20.4765 41.6145 6.57129 -0.330289 0.0340653 0.198667 -0.175581
1376 1 17.7359 39.2584 11.5644 -0.419548 -1.14319 -0.0659092 0.279269
1377 1 13.9753 49.4949 3.45149 -0.410844 0.809501 -0.873158 0.39306
1378 1 14.489 42.8223 9.71079 -0.30414 -0.70389 0.953373 -1.90065
1379 1 19.1073 46.3866 1.21217 -0.338509 -2.24462 -1.41092 -0.912085
1380 1 24.1976 43.5141 11.0086 -0.37309 0.338035 0.276156 -0.814061
1381 1 18.5565 40.4055 7.96163 -0.382709 0.335198 -0.866311 -1.24477
1382 1 20.6624 38.7146 9.42855 -0.392773 -0.591858 1.21816 -0.0706991
1383 1 13.7531 39.3545 7.0929 -0.382356 1.05679 -0.0132831 1.69935
1384 1 21.9229 39.443 5.92062 -0.389019 -0.33585 -1.83778 1.46254
1385 1 21.7755 40.6772 10.9739 -0.414018 1.0165 0.179122 -0.70884
1386 1 13.7546 45.823 0.807092 -0.396821 -0.623884 -1.05585 0.584088
1387 1 23.6945 40.8133 7.5072 -0.362349 -1.72147 0.77094 -0.464812
1388 1 24.1463 37.6643 0.59919 -0.374382 -1.4477 -0.14376 0.671615
1389 1 20.0741 39.371 0.283311 -0.3868 0.155608 0.533173 1.02169
1390 1 21.3047 46.8574 7.4017 -0.388211 -0.386605 0.361528 -1.74895
1391 1 14.454 48.8729 6.89019 -0.408619 0.412872 0.137663 0.101596
1392 1 20.4653 48.608 4.65651 -0.385286 -1.44094 -0.939427 -0.221014
1393 1 18.2637 46.5143 7.70891 -0.321242 -1.88173 -0.0515169 0.943686
1394 1 20.5589 48.5274 11.2215 -0.342018 0.362028 1.42624 -0.587906
1395 1 18.3834 38.1745 5.91083 -0.427429 0.105376 0.322788 -0.463287
1396 1 14.3236 48.9966 0.638361 -0.44709 0.229015 -0.72807 0.688969
1397 1 17.1086 48.6162 6.73217 -0.349389 -0.385936 -0.567982 -1.51759
1398 1 22.7645 43.5949 0.891521 -0.331734 1.31608 -0.301399 0.946625
1399 1 14.4581 48.4032 10.3284 -0.383756 -0.755412 1.09221 1.14449
1400 1 17.8037 39.3952 3.14131 -0.367683 -1.2906 1.25456 -0.612084
1401 1 21.0063 44.9234 12.172 -0.420388 -0.295033 0.0218946 0.306951
1402 1 22.9562 43.1447 8.6608 -0.390309 0.720233 1.47246 0.599735
1403 1 14.8154 43.5616 12.1007 -0.412655 -0.375385 0.764995 0.876578
1404 1 12.7434 46.1073 10.0474 -0.378295 1.61552 0.581395 0.769385
1405 1 21.9161 49.4624 7.56682 -0.329856 -1.48824 0.404147 1.39129
1406 1 13.8529 39.652 4.17113 -0.408919 -0.867066 2.01755 -1.67529
1407 1 22.1361 41.0241 3.56074 -0.389212 -0.508142 -0.204787 0.440843
1408 1 13.1925 46.5583 7.39094 -0.388614 0.316405 -1.90305 0.267496
1409 2 23.5383 40.2063 2.7148 0.193866 -0.356433 0.460339 0.255106
1410 2 17.9513 42.8431 2.61038 0.193199 0.0834991 -0.539134 0.895007
1411 2 12.6744 44.1379 3.29771 0.199909 0.719372 -0.384011 0.947626
1412 2 16.74 41.5175 4.45218 0.175736 -1.24122 0.58222 0.829581
1413 2 16.0705 48.8924 11.7621 0.19606 -1.63542 -0.256967 -0.116642
1414 2 18.977 49.3861 1.98138 0.174208 0.182796 0.124768 0.130061
1415 2 17.8155 46.4722 10.8473 0.1913 0.312142 0.230575 -0.825191
1416 2 18.1762 47.6426 1.64281 0.18401 0.0804534 0.200742 0.077675
1417 2 21.1532 48.4066 0.403738 0.176646 0.63516 -0.0309737 -0.425046
1418 2 12.7023 38.36 8.27083 0.176537 -0.760427 -0.779035 0.110115
1419 2 17.8972 44.4221 11.1489 0.180833 0.329742 0.0899176 -0.056458
1420 2 16.2775 41.5149 1.06668 0.191654 -0.37806 -1.91561 0.00364093
1421 2 23.9878 47.5322 4.15332 0.194096 -0.402634 -0.393177 -0.283149
1422 2 15.4514 45.4973 2.15065 0.187035 -0.281856 -0.015296 -0.25177
1423 2 21.9715 47.3767 10.5587 0.182165 0.0910697 -1.24848 -0.621889
1424 2 23.626 42.1818 6.04496 0.171996 -0.409695 0.311107 -1.30324
1425 2 13.119 41.0909 12.4297 0.175174 -0.0748743 -0.266781 0.201111
1426 2 12.8746 42.8401 4.88841 0.191196 -0.758045 -0.337251 0.131965
1427 2 21.9594 46.8126 3.93036 0.200159 -1.16461 0.673477 1.1348
1428 2 21.5336 43.2165 9.6685 0.183445 -1.10979 -0.12107 0.975691
1429 2 20.3705 41.1663 0.798227 0.157613 -0.386553 1.94991 0.329869
1430 2 16.6699 40.5559 8.20879 0.191086 -1.36805 0.131768 0.00469897
1431 2 17.7165 43.2336 8.18101 0.186862 0.310512 -0.190483 -0.0479258
1432 2 16.8762 48.2355 3.13926 0.187557 -0.27612 -0.574688 0.59209
1433 2 19.3817 41.8905 4.88281 0.197165 0.159983 0.299545 0.185873
1434 2 24.331 38.9446 11.7609 0.177292 0.578506 1.20022 -1.0472
1435 2 19.2371 45.8785 3.0924 0.175937 0.109842 0.201972 0.349678
1436 2 18.0787 42.3266 10.1268 0.219889 -0.15232 -0.923631 0.35065
1437 2 15.5361 43.9899 6.98757 0.190257 1.30314 -0.0988077 0.144598
1438 2 24.1797 45.5631 6.85196 0.189289 -0.837201 -0.747521 -0.0199024
1439 2 20.8548 40.7981 6.19064 0.181711 0.368406 -0.299777 0.146555
1440 2 17.0912 39.7052 12.1599 0.184101 0.583468 0.0307367 -0.321249
1441 2 13.1936 49.0303 3.86621 0.193859 1.0537 0.349369 -0.0719905
1442 2 13.5441 42.6437 9.73202 0.198064 -0.272151 -0.584436 0.442698
1443 2 19.9735 46.4414 0.818678 0.190893 0.332389 -0.440777 -0.343885
1444 2 23.8163 43.523 11.8963 0.193759 -0.29863 -0.00982899 0.279398
1445 2 18.3001 39.5502 7.53703 0.185831 0.394867 0.79678 0.21229
1446 2 21.2552 39.3597 9.88483 0.179945 -0.193084 -0.389075 -0.214942
1447 2 14.6161 39.7609 7.45981 0.20262 -1.1761 -0.160549 -0.326575
1448 2 22.535 39.8735 6.56032 0.180151 0.0042381 -0.265706 -0.400208
1449 2 21.5201 41.6251 10.9061 0.187814 -0.354786 -0.390133 0.0564297
1450 2 13.0676 45.4587 1.45097 0.199789 0.895145 0.911567 -0.610002
1451 2 23.5673 41.5318 8.14492 0.201525 -0.166513 0.28501 0.18386
1452 2 23.4732 49.3621 0.575273 0.19476 0.863852 1.32049 0.0951779
1453 2 19.2674 39.1742 12.1925 0.187124 -0.247204 0.246065 0.238686
1454 2 21.5869 47.7831 7.25744 0.185868 -0.160555 0.210018 -0.469466
1455 2 14.2031 49.7859 6.80231 0.183051 -0.9381 0.705288 -0.0164511
1456 2 19.8147 49.2052 5.07656 0.176976 0.476347 -0.207118 -0.0249836
1457 2 18.0359 45.6221 7.43463 0.219116 0.0772101 -0.470231 -0.136996
1458 2 20.5882 49.4681 10.872 0.195237 -0.258517 -1.45363 0.472026
1459 2 17.9183 37.404 6.31394 0.188651 0.0700798 0.184953 0.0977147
1460 2 13.4385 49.3211 0.40714 0.18889 0.179852 0.110442 0.448932
1461 2 16.9862 48.2902 5.77885 0.182509 0.0371619 0.223175 1.30776
1462 2 23.3903 43.6293 1.64523 0.200815 0.00671155 0.576638 -0.442765
1463 2 14.9574 47.8862 9.74838 0.217881 1.20751 -0.963113 -1.45579
1464 2 17.1976 39.7495 2.42567 0.186365 0.528414 -0.463304 0.960694
1465 2 21.2788 45.598 11.5444 0.185081 0.619338 0.0697592 -0.168697
1466 2 23.3368 43.4044 9.58703 0.175822 -0.217918 -0.558908 -1.52311
1467 2 14.5896 43.3238 11.1728 0.181372 0.295788 0.21271 0.0934689
1468 2 12.9393 46.4025 9.12366 0.170613 -0.246064 -0.264541 0.322785
1469 2 21.1215 49.6699 8.15928 0.195699 1.44805 0.00635354 -1.13472
1470 2 14.1985 38.7729 4.05258 0.191808 -0.180874 -1.06371 -0.461688
1471 2 22.4853 41.7773 4.10924 0.189861 -0.12107 -0.829745 -0.151398
1472 2 13.8938 45.8276 7.30524 0.19638 -0.809538 1.13444 -0.193631
1473 2 24.7005 40.6461 1.69352 0.206032 -0.476754 -0.522309 0.486896
1474 2 18.7083 43.5416 1.56323 0.196026 0.100914 -0.0839112 -0.431403
1475 2 23.9369 45.173 3.14598 0.210894 -0.718091 0.527595 0.734241
1476 2 15.4102 40.7738 4.61506 0.179221 -0.555446 -0.0861594 0.0341988
1477 2 17.4931 48.5077 11.2952 0.204264 -0.0212941 -0.292636 -0.476891
1478 2 20.0441 49.7177 3.02927 0.185961 0.832457 -0.741415 2.66443
1479 2 18.3808 47.0074 9.37079 0.200953 -0.653687 -0.369491 0.817825
1480 2 17.3692 48.7919 0.956195 0.192112 -0.0939721 0.0110443 0.0892584
1481 2 21.3593 49.0084 1.69308 0.181729 -0.928806 1.53852 1.69161
1482 2 24.5171 38.6965 9.53858 0.171708 -0.447901 0.40221 1.37402
1483 2 16.5901 44.6158 11.7985 0.183974 -0.270946 0.319418 0.536963
1484 2 15.123 40.4334 1.0452 0.195344 0.128745 0.207329 0.0538896
1485 2 24.3367 47.9367 5.56111 0.213385 0.125727 -0.76986 2.58285
1486 2 16.7284 44.5701 2.14522 0.186933 -0.0261755 0.255891 0.118018
1487 2 23.2585 46.5569 10.1899 0.187531 -0.913535 -0.355903 -0.0268117
1488 2 23.1243 43.5281 5.42895 0.201078 0.332233 -0.254879 -0.0195037
1489 2 13.9635 42.2362 0.528388 0.187059 -0.595086 -0.432806 0.552143
1490 2 14.374 42.7006 4.59414 0.204141 1.38771 -0.985232 -0.333233
1491 2 22.4634 46.9728 2.47417 0.194663 -0.0672858 -0.862981 1.43721
1492 2 20.844 43.7628 11.0375 0.181607 0.209113 0.838492 0.799657
1493 2 21.0064 41.6249 2.01343 0.1723 -0.177272 0.633168 0.70841
1494 2 15.5671 41.6209 8.40898 0.185921 -0.390881 -0.0932669 0.177022
1495 2 17.5623 42.8683 6.59778 0.1999 0.0780279 0.301562 0.757142
1496 2 16.4158 46.9115 3.89481 0.200971 -0.125042 0.55745 -0.386396
1497 2 18.6292 40.9686 3.90205 0.181684 -0.0104836 0.126124 -0.101261
1498 2 23.8492 40.2668 11.0004 0.186072 0.160974 -0.487411 0.156599
1499 2 18.3937 45.366 4.25414 0.205963 1.18093 0.786544 -0.0181423
1500 2 19.2546 43.2273 9.82473 0.200211 2.08995 -0.213647 0.191307
1501 2 14.2649 43.9146 6.14993 0.185953 -0.444083 -0.136026 -0.47196
1502 2 22.642 45.7051 6.88406 0.183593 -0.404941 -0.0885154 -0.0344019
1503 2 21.1718 41.9953 7.12585 0.197905 -0.367083 -0.0427905 -0.129169
1504 2 17.2812 38.4113 11.3951 0.192804 0.52526 0.110372 0.0489782
1505 2 14.8347 49.0519 3.70165 0.188502 -1.42818 0.0790718 -0.000383991
1506 2 14.4708 43.4351 8.92944 0.194363 0.539527 -0.307414 0.624678
1507 2 18.4875 45.8144 0.59413 0.182444 1.67483 1.21829 1.31941
1508 2 24.5867 44.3841 10.8154 0.183416 -0.0163223 0.0310441 0.177449
1509 2 19.2459 40.7874 7.32031 0.175878 -0.928802 -0.112224 1.18914
1510 2 19.9582 39.3338 9.09775 0.168108 0.559545 -0.979241 0.321492
1511 2 13.6911 39.5943 6.18601 0.199006 -0.0999133 0.267752 -1.60262
1512 2 21.757 38.518 6.3582 0.175888 0.411599 2.02956 -1.08953
1513 2 21.3025 40.2348 11.6723 0.193843 -0.506976 -0.246788 0.71411
1514 2 13.8437 46.7793 0.833919 0.202725 -0.21628 0.254447 0.0421179
1515 2 24.5885 40.5533 7.4956 0.19561 1.89006 -0.803226 0.0428364
1516 2 23.8169 38.2754 1.32141 0.190976 0.974082 -0.584531 -0.9588
1517 2 19.8697 39.1632 1.2327 0.19421 0.477062 -0.385014 -1.54587
1518 2 21.5862 46.7632 8.28106 0.178842 0.482379 -0.755845 2.40498
1519 2 15.4211 48.9872 6.88436 0.188353 0.168981 -0.86615 0.134639
1520 2 19.9454 47.7745 4.47241 0.182047 0.645535 1.04756 0.351235
1521 2 19.1327 46.7313 7.47778 0.206326 2.51612 0.0300683 -0.858089
1522 2 19.7397 48.1016 10.9334 0.190937 -0.296979 0.0252304 -0.225501
1523 2 17.8829 38.3968 5.1121 0.196037 0.238569 0.170145 0.183838
1524 2 14.3699 48.9168 1.61985 0.1814 -0.444973 0.644784 -0.891195
1525 2 17.5018 47.8851 7.25919 0.212121 -0.261006 -0.155082 -0.401374
1526 2 22.1774 42.872 1.12074 0.184614 -0.881098 -0.463071 -0.383382
1527 2 14.1757 49.1742 9.82513 0.204875 -0.246211 -0.113686 0.0651464
1528 2 18.4632 38.897 2.67605 0.172824 0.6352 -0.722285 -0.200789
1529 2 21.7774 44.5511 0.210498 0.199144 -0.116571 0.330453 0.0249211
1530 2 23.163 43.8953 7.98204 0.182153 -0.354005 -0.98619 1.12477
1531 2 14.3051 44.3691 12.374 0.188458 0.614584 -0.593157 -0.219764
1532 2 13.5111 46.4866 10.588 0.186155 -1.94787 -0.570735 -0.964357
1533 2 22.6455 49.73 8.15193 0.187976 0.366803 0.0566996 -0.293578
1534 2 13.3755 39.8959 3.27737 0.174978 0.806886 -0.991365 2.45757
1535 2 21.7811 40.3437 4.18495 0.199704 0.656172 0.665594 -0.477253
1536 2 13.554 47.4344 7.21058 0.212219 0.673686 0.501577 -0.263844
1537 1 11.8295 2.55755 14.6244 -0.420758 0.342222 0.732485 -0.285464
1538 1 5.36067 5.99823 14.254 -0.358101 0.791613 0.496428 -0.893871
1539 1 12.1712 7.3425 15.1519 -0.37477 -0.400721 0.234734 -2.01723
1540 1 3.38103 4.2786 17.2842 -0.402436 0.328834 -0.551016 -0.472792
1541 1 4.53932 11.7316 24.3473 -0.355813 0.975084 0.69929 0.333052
1542 1 7.34076 0.184453 14.6222 -0.374549 -0.501986 1.14415 -1.80041
1543 1 5.72871 9.90111 22.7518 -0.423978 0.315159 -0.0304245 0.268573
1544 1 5.31834 11.1872 14.2718 -0.350674 -0.3049 -0.00231336 0.0204076
1545 1 9.38997 11.1404 13.5446 -0.384948 1.16548 -1.98512 -1.50403
1546 1 12.0584 0.640237 21.3647 -0.432746 1.41857 0.619577 -1.5785
1547 1 5.00832 7.72091 24.1845 -0.330582 1.08195 -0.561597 -0.891538
1548 1 3.63942 3.18684 13.5247 -0.330429 0.719245 1.01133 0.0567672
1549 1 11.8785 10.9054 17.1439 -0.39207 0.0461444 0.533413 -2.21763
1550 1 3.88109 8.04996 14.9554 -0.462477 -0.0634069 0.731857 0.589531
1551 1 9.82152 9.16005 22.622 -0.361959 0.241425 1.67147 0.519447
1552 1 10.9976 5.3105 17.6174 -0.316391 0.337902 -0.519421 1.99981
1553 1 0.97003 4.12443 13.2874 -0.356134 0.712854 0.804341 -1.16807
1554 1 1.24059 5.98718 17.2043 -0.3777 0.0832876 1.51163 -0.406536
1555 1 10.1016 9.08885 15.763 -0.351848 0.972448 0.762226 -2.8631
1556 1 8.3902 5.72275 22.8369 -0.36981 0.963931 -0.892926 -2.29942
1557 1 8.0585 4.72145 13.7484 -0.365659 0.930636 -3.14246 -0.244406
1558 1 3.23154 3.33702 20.7021 -0.400109 2.30303 0.277361 -0.0429881
1559 1 5.02291 6.20678 19.7374 -0.410877 -0.301516 0.0267721 -0.208709
1560 1 3.93952 10.5505 16.3948 -0.403133 0.447248 -0.0351427 -0.115901
1561 1 6.25079 4.56434 16.658 -0.382449 -0.382653 -0.371996 -0.161319
1562 1 12.1767 2.35218 23.5537 -0.378041 -1.04214 -0.618148 1.11603
1563 1 6.76045 8.56999 16.5158 -0.405805 -0.782831 -0.567602 -0.984915
1564 1 5.87274 5.83659 22.2374 -0.343483 -2.59244 -0.00734587 -0.0325799
1565 1 2.17233 6.90959 19.4323 -0.400032 -0.220458 0.940268 2.06615
1566 1 10.891 7.68914 19.2257 -0.353031 0.325128 0.90574 0.0766004
1567 1 8.02925 4.28064 19.0142 -0.323507 0.241394 0.13472 -0.0819281
1568 1 5.29087 1.91909 24.0043 -0.423345 -1.23457 0.592998 0.695785
1569 1 1.52995 12.1603 15.8988 -0.409323 0.483118 -1.00152 0.514611
1570 1 2.04251 5.49119 22.152 -0.302643 -1.04444 0.576407 -1.50662
1571 1 6.66074 9.04929 13.6562 -0.338453 -1.86611 -1.11221 -0.618429
1572 1 11.7521 6.1808 23.4545 -0.37256 0.228361 -0.0401569 -0.881901
1573 1 6.11167 3.06911 20.4073 -0.385577 0.712421 -0.723873 -1.69666
1574 1 8.21981 1.37901 21.8754 -0.396127 -0.629499 0.824152 -0.159453
1575 1 1.31072 2.01556 19.5363 -0.387962 1.13391 0.142094 1.48967
1576 1 9.48028 2.10857 18.3616 -0.387839 -0.46625 -1.8976 1.3714
1577 1 9.33108 3.33562 23.4129 -0.413978 0.259158 0.181187 0.126932
1578 1 1.30838 8.48956 13.2546 -0.393151 -0.570901 -1.21107 0.546195
1579 1 11.252 3.47984 19.9546 -0.360876 -2.54145 1.30369 -0.294581
1580 1 11.6992 0.32747 13.0449 -0.372928 -1.32042 0.301512 0.878716
1581 1 7.62913 2.03795 12.7217 -0.387314 0.442778 0.543784 1.7209
1582 1 8.86095 9.52023 19.8466 -0.384103 -0.225666 0.000617309 -0.926745
1583 1 2.01208 11.5394 19.3335 -0.406807 -0.834993 0.340027 0.0715717
1584 1 8.02112 11.2669 17.1057 -0.385883 -1.57008 -0.374673 0.0610457
1585 1 5.81873 9.17657 20.1514 -0.322373 -1.62778 -0.149245 0.859204
1586 1 8.1122 11.1899 23.6649 -0.340583 0.220431 1.25057 -0.62391
1587 1 5.93914 0.840985 18.3533 -0.430783 0.254064 0.175585 -0.159819
1588 1 1.88393 11.6584 13.0827 -0.44454 -0.654819 -0.396721 0.299807
1589 1 4.65952 11.2781 19.1746 -0.361675 -0.151887 -0.74909 -1.09256
1590 1 10.3185 6.26074 13.334 -0.324088 0.987128 -0.829361 1.21355
1591 1 2.01395 11.0698 22.7732 -0.385403 -1.0868 1.24039 1.72292
1592 1 5.3599 2.05834 15.5868 -0.367627 -1.80349 1.5586 -0.994522
1593 1 8.55721 7.58667 24.6144 -0.416235 -0.491801 0.474752 -0.17796
1594 1 10.5082 5.8124 21.1048 -0.389834 0.653081 1.40839 0.282218
1595 1 2.36831 6.23318 24.5478 -0.416765 -0.200433 0.303998 0.422694
1596 1 0.299163 8.76946 22.4954 -0.375644 1.78093 0.620102 1.32694
1597 1 9.47182 12.1313 20.0172 -0.334307 -0.95053 0.115282 0.560863
1598 1 1.4077 2.32035 16.6153 -0.407502 -1.27943 3.1519 -1.39053
1599 1 9.68996 3.69218 16.0022 -0.384885 -0.276114 0.0496077 0.104897
1600 1 0.750995 9.21771 19.8376 -0.387516 -0.122272 -1.77945 0.355504
1601 2 11.0944 2.87777 15.1812 0.190075 0.157293 0.222889 -0.175168
1602 2 5.51149 5.50277 15.0436 0.19262 0.18199 -0.690297 1.10944
1603 2 0.232366 6.79318 15.7262 0.203598 0.797725 -0.499551 1.22252
1604 2 4.26766 4.20321 16.8961 0.180537 -0.223082 0.406023 0.379592
1605 2 3.62075 11.5699 24.2165 0.196378 -1.57694 -0.269525 -0.134133
1606 2 6.52257 12.0678 14.442 0.174937 0.133151 -0.00585894 0.0720594
1607 2 5.37536 9.14179 23.2969 0.191212 0.315529 0.260094 -0.858808
1608 2 5.74348 10.3172 14.0873 0.184858 0.123022 -0.00479603 0.00959058
1609 2 8.71608 11.0673 12.8431 0.178211 0.52417 -0.0193224 -0.540974
1610 2 0.252085 1.03979 20.7181 0.175146 -0.790693 -0.857986 0.0961946
1611 2 5.46455 7.0743 23.5838 0.178445 -0.042942 0.606067 0.395916
1612 2 3.84067 4.15664 13.5011 0.196052 -0.383572 -1.2235 0.00330582
1613 2 11.5469 10.1832 16.5949 0.191319 -0.196925 0.0929468 0.0540373
1614 2 3.00814 8.1679 14.5923 0.187767 -0.314759 0.00228674 -0.262895
1615 2 9.52425 10.0363 23.009 0.18378 0.0899009 -1.13399 -0.606621
1616 2 11.1769 4.82738 18.4998 0.169825 -0.465466 0.559495 -1.70417
1617 2 0.678637 3.76162 24.8856 0.178789 -0.314332 -0.553869 -0.362174
1618 2 0.441714 5.51254 17.3196 0.192708 -1.5167 -0.787792 0.268598
1619 2 9.50749 9.47924 16.3757 0.198836 -0.863004 0.505976 0.787035
1620 2 9.08324 5.89752 22.1235 0.18318 -0.996089 -0.212757 0.779066
1621 2 7.9058 3.827 13.2591 0.156652 -0.334002 2.02766 0.341722
1622 2 4.24096 3.2281 20.6553 0.189767 -1.6789 0.139435 -0.00958857
1623 2 5.28061 5.89516 20.6448 0.1851 0.132312 0.0134735 -0.721446
1624 2 4.43669 10.9127 15.583 0.186968 -0.409909 -0.754793 0.782892
1625 2 6.92776 4.56291 17.3406 0.197371 0.150823 0.216004 0.13058
1626 2 11.8757 1.61676 24.1985 0.176569 0.636259 1.13111 -0.98555
1627 2 6.79937 8.52633 15.5291 0.174469 0.093359 0.28181 0.769426
1628 2 5.61225 4.97462 22.5825 0.221556 0.285788 0.0703048 -0.043045
1629 2 3.08345 6.66752 19.4225 0.191645 1.49562 -0.114695 0.229275
1630 2 11.7235 8.22438 19.3065 0.190772 -0.475664 -0.488159 -0.0107465
1631 2 8.39869 3.45141 18.642 0.181156 0.383153 -0.152942 0.16287
1632 2 4.64335 2.37569 24.6106 0.182019 0.89179 -0.239508 -0.647395
1633 2 0.749648 11.6895 16.3192 0.19159 1.08514 0.475014 -0.194188
1634 2 1.09 5.31167 22.176 0.197956 0.09683 -0.491822 0.418652
1635 2 7.53751 9.11333 13.2809 0.192872 0.148716 -0.510452 -0.351236
1636 2 11.3678 6.20469 24.3347 0.193158 -0.417327 -0.115941 0.54198
1637 2 5.84649 2.21425 19.9796 0.184135 0.462155 0.905599 0.256581
1638 2 8.80737 2.01498 22.3334 0.181729 0.0110624 -0.156159 -0.0666464
1639 2 2.17231 2.43145 19.9129 0.202034 -1.26698 -0.242219 -0.424196
1640 2 10.0972 2.52889 18.9976 0.180531 0.0746144 -0.188896 -0.300098
1641 2 9.06721 4.29162 23.3493 0.184001 -0.168448 -0.747167 0.00284722
1642 2 0.632176 8.1249 13.8998 0.198267 0.744013 0.770989 -0.515692
1643 2 11.1179 4.20728 20.5929 0.200407 -0.138925 0.0295229 -0.029655
1644 2 11.0264 12.0226 13.0287 0.194629 0.932363 1.36081 0.0180231
1645 2 6.84283 1.85548 24.6357 0.189908 -0.647336 0.0928912 -0.0186784
1646 2 9.12996 10.4426 19.6938 0.186677 -0.0621003 0.374188 -0.428349
1647 2 1.75291 12.4549 19.2396 0.182564 -0.947595 0.432463 0.0122737
1648 2 7.36184 11.8776 17.5182 0.174936 0.778991 -0.521031 -0.197605
1649 2 5.5965 8.26964 19.9019 0.220049 0.224083 -0.210434 -0.132155
1650 2 8.13987 12.1205 23.3 0.195232 -0.202792 -1.27654 0.470118
1651 2 5.48185 0.0620001 18.7602 0.189134 0.0510949 0.318172 -0.0531071
1652 2 0.9788 11.9892 12.8606 0.184239 0.879421 -0.130023 0.49601
1653 2 4.53064 10.9445 18.2337 0.181614 0.0214515 0.186058 1.03967
1654 2 10.9373 6.29429 14.1002 0.201725 -0.137379 0.570763 -0.610862
1655 2 2.51646 10.559 22.2071 0.220229 1.6195 -1.33918 -1.88471
1656 2 4.73596 2.42293 14.8641 0.183273 0.928355 -0.70146 1.39279
1657 2 8.84421 8.27524 23.9968 0.184134 0.479783 -0.214665 0.0523744
1658 2 10.8899 6.06843 22.0212 0.177036 -0.143054 -0.48706 -1.33763
1659 2 2.13753 5.99851 23.6159 0.179942 0.396124 0.199098 0.271906
1660 2 0.482739 9.07036 21.5829 0.171915 -0.153501 -0.152129 -0.0628138
1661 2 8.69755 12.3463 20.5857 0.198565 0.569195 0.180093 -0.525454
1662 2 1.75118 1.46057 16.5335 0.196924 0.271997 -2.1849 -0.641513
1663 2 10.0538 4.44052 16.5489 0.191867 -0.18739 -0.838373 -0.0929808
1664 2 1.4403 8.49527 19.7623 0.197428 -0.492601 0.789767 -0.248182
1665 2 12.2523 3.31976 14.1275 0.204725 -0.634542 -0.868601 0.709919
1666 2 6.27857 6.24061 14.0126 0.192449 -0.751218 -0.342015 -0.169979
1667 2 11.4956 7.85122 15.5859 0.211265 -0.649191 0.462568 0.674013
1668 2 2.95823 3.42902 17.0603 0.179661 -0.332987 0.273825 0.101297
1669 2 5.04682 11.1794 23.7457 0.205268 0.00805327 -0.396173 -0.591137
1670 2 7.59272 12.4159 15.4852 0.186808 0.746239 -0.637718 2.37994
1671 2 5.94514 9.66244 21.8152 0.199478 -0.698541 -0.317584 0.887518
1672 2 4.92223 11.4627 13.4022 0.193199 -0.10331 -0.0235183 0.0195448
1673 2 8.92214 11.6718 14.1269 0.184608 -1.23201 1.86159 2.05697
1674 2 12.0693 1.36115 21.9983 0.169619 -0.349835 0.0810266 0.957147
1675 2 4.16446 7.27556 24.2404 0.185489 -0.999023 -0.0119322 0.602483
1676 2 2.67743 3.08285 13.4851 0.199022 0.0153111 0.30927 0.052274
1677 2 11.8876 10.5952 18.0122 0.211032 0.129964 -0.568535 2.03276
1678 2 4.26098 7.236 14.6134 0.18952 0.314342 -0.418606 -0.197791
1679 2 10.8009 9.22043 22.6243 0.190425 -0.343948 -0.289798 9.01247e-05
1680 2 10.6829 6.18965 17.8919 0.200719 0.252581 -0.0394568 0.0265992
1681 2 1.50941 4.91426 12.9772 0.186102 -0.506989 -0.415277 0.503601
1682 2 1.93388 5.36176 17.0553 0.203519 1.34017 -0.940808 -0.318822
1683 2 10.0206 9.64057 14.9016 0.19279 -0.0668836 -1.09625 1.88062
1684 2 8.41081 6.4343 23.4706 0.182249 0.126728 1.14083 1.16154
1685 2 8.58902 4.28309 14.4615 0.169223 -0.548606 0.900633 0.246209
1686 2 3.11332 4.28938 20.8587 0.183841 -0.305064 -0.688228 0.0756219
1687 2 5.11661 5.53041 19.0411 0.198951 0.0826103 0.358636 0.850731
1688 2 3.96881 9.56977 16.3397 0.199949 -0.0942119 0.904086 -0.406477
1689 2 6.16667 3.64581 16.3456 0.182008 0.0593451 0.0336808 -0.0596333
1690 2 11.3922 2.92575 23.4393 0.185543 0.210486 -0.444178 0.140855
1691 2 5.96438 8.03066 16.6989 0.206546 0.784993 0.546758 0.103794
1692 2 6.81214 5.90497 22.28 0.201502 2.05311 -0.370014 0.241923
1693 2 1.83724 6.58977 18.611 0.189304 -1.04331 -0.550213 -1.60355
1694 2 10.176 8.36505 19.3201 0.183598 0.038449 -0.397527 -0.0707256
1695 2 8.74118 4.67409 19.5488 0.197549 -0.586284 -0.183886 -0.255869
1696 2 4.83771 1.08157 23.836 0.19315 0.314203 -0.244385 -0.0141367
1697 2 2.37372 11.6987 16.1488 0.186078 -1.16133 0.0956195 -0.00764004
1698 2 2.02943 6.09253 21.376 0.195764 0.507861 -0.0207114 0.279648
1699 2 6.04589 8.48759 13.0492 0.185712 1.52218 0.984074 1.02958
1700 2 12.1077 7.0537 23.2606 0.18353 0.247836 0.437184 0.0102281
1701 2 6.81882 3.45595 19.7509 0.173735 -1.37401 -0.315386 1.62025
1702 2 7.52047 1.99266 21.5425 0.170052 0.385939 -0.817564 0.24351
1703 2 1.25065 2.2573 18.6238 0.197354 -0.0791017 0.199033 -1.25175
1704 2 9.30478 1.18511 18.7965 0.176042 0.447802 2.02109 -1.08433
1705 2 8.82428 2.90443 24.1252 0.188418 0.0990189 0.127326 -0.0594154
1706 2 1.38332 9.44063 13.3038 0.203017 -0.126304 0.543663 -0.0243987
1707 2 12.1324 3.21872 19.9611 0.19715 2.66659 -1.0442 0.0664727
1708 2 11.3786 0.946849 13.7798 0.190923 1.05116 -0.817608 -1.25478
1709 2 7.4286 1.8229 13.6814 0.193875 0.551774 -0.318213 -1.9315
1710 2 9.15169 9.42043 20.7384 0.176654 0.242729 -0.576066 1.54297
1711 2 2.95172 11.668 19.3194 0.191611 1.40073 -0.796247 0.142136
1712 2 7.50774 10.4359 16.9348 0.183396 0.462606 0.809847 0.256941
1713 2 6.68972 9.41545 19.9238 0.206917 2.14219 -0.151947 -0.785423
1714 2 7.2915 10.7656 23.3708 0.190011 -0.214654 0.0147072 -0.175268
1715 2 5.44745 1.07478 17.558 0.197569 0.0826508 0.151233 0.0154018
1716 2 1.90947 11.5829 14.0577 0.17938 -0.274924 0.577293 -0.538261
1717 2 5.06641 10.5451 19.7026 0.210594 -0.44323 0.0802574 -0.548641
1718 2 9.71555 5.52829 13.5556 0.182937 -0.459582 0.0331549 -0.508082
1719 2 1.73722 11.8398 22.2762 0.20708 -0.329247 0.106134 -0.0943051
1720 2 6.02113 1.57969 15.1081 0.17217 0.720527 -0.762752 -0.255115
1721 2 9.34162 7.19125 12.6591 0.198501 -0.557586 0.720284 -0.331888
1722 2 10.7172 6.55568 20.4136 0.182729 -0.348108 -0.981948 1.21908
1723 2 1.87127 7.0397 24.8006 0.187766 0.345043 -0.183435 0.030134
1724 2 1.07457 9.16127 23.0343 0.185666 -2.1958 -0.717377 -1.10519
1725 2 10.1972 12.3913 20.5965 0.190413 0.694774 0.156922 -0.0736771
1726 2 0.927052 2.55238 15.7252 0.178596 0.789077 -0.997388 2.32388
1727 2 9.33936 3.00712 16.6082 0.202683 0.499944 0.453839 -0.176945
1728 2 1.11842 10.0849 19.6607 0.212951 0.740359 0.77711 -0.321077
1729 1 24.2723 2.5594 14.6222 -0.419422 0.350454 0.76319 -0.270441
1730 1 17.8043 6.00153 14.2522 -0.350328 0.271086 0.275157 -0.653558
1731 1 24.6144 7.34043 15.153 -0.371773 0.0147726 -0.101172 -2.0261
1732 1 15.8202 4.27998 17.2859 -0.400642 1.3452 -0.246327 -0.741172
1733 1 16.9866 11.7304 24.347 -0.348855 1.3462 0.487213 0.0815896
1734 1 19.7866 0.177485 14.6222 -0.372827 -0.491807 0.929663 -1.26219
1735 1 18.1746 9.90181 22.7538 -0.424259 0.12784 0.240552 0.962661
1736 1 17.7632 11.1904 14.275 -0.35201 -0.0889011 -0.457141 0.0747138
1737 1 21.8351 11.1358 13.5452 -0.385992 0.984475 -1.58124 -0.920635
1738 1 24.5039 0.637936 21.3644 -0.430543 1.08262 0.19951 -1.55015
1739 1 17.4549 7.72243 24.1865 -0.332273 1.53648 0.265904 -0.552245
1740 1 16.0871 3.19268 13.5235 -0.32796 0.423718 1.13236 0.00898915
1741 1 24.3239 10.9017 17.1443 -0.390182 0.0671168 0.769381 -2.54182
1742 1 16.328 8.05422 14.9555 -0.463615 -0.841396 -0.0418865 -0.35868
1743 1 22.2671 9.15813 22.626 -0.366527 0.525185 1.60395 0.449222
1744 1 23.4425 5.30675 17.6145 -0.323264 0.18384 0.0152375 1.67589
1745 1 13.4167 4.11883 13.2824 -0.355509 0.794346 0.806866 -0.344719
1746 1 13.6845 5.98717 17.205 -0.37874 -0.861151 0.611424 -0.241515
1747 1 22.5453 9.08661 15.7691 -0.351302 0.596737 0.955514 -2.32547
1748 1 20.8344 5.71692 22.8333 -0.370923 1.00029 -0.384051 -1.88459
1749 1 20.5081 4.72055 13.7433 -0.370704 0.64688 -2.84984 -0.683338
1750 1 15.6759 3.34004 20.7036 -0.402573 2.09708 -0.36057 -0.0959132
1751 1 17.4652 6.20999 19.7373 -0.407444 -0.636798 0.673475 -0.92594
1752 1 16.3853 10.5482 16.3964 -0.400243 0.387701 0.558506 0.0117379
1753 1 18.697 4.56007 16.6517 -0.379294 -0.655175 -0.356797 -0.416451
1754 1 24.6222 2.34975 23.5539 -0.383639 -0.862805 -1.04458 1.33234
1755 1 19.2036 8.56573 16.5142 -0.40156 -1.26672 -0.847062 -0.382237
1756 1 18.3162 5.8411 22.2371 -0.356803 -1.58648 1.28578 -0.464909
1757 1 14.6246 6.90848 19.4345 -0.404006 -0.296036 0.593863 1.29845
1758 1 23.3328 7.68968 19.2269 -0.352124 1.20986 0.591102 0.0572998
1759 1 20.4731 4.27916 19.0115 -0.331219 0.615121 0.338335 0.210496
1760 1 17.7326 1.91857 24.0041 -0.416849 -1.31534 0.408433 0.669154
1761 1 13.9739 12.1585 15.8946 -0.411481 0.740815 -0.942213 0.468795
1762 1 14.4839 5.48653 22.1553 -0.30735 -0.978262 0.850996 -1.87894
1763 1 19.1046 9.05175 13.6578 -0.338262 -1.53246 -1.10461 -0.64783
1764 1 24.1931 6.17937 23.4545 -0.373874 0.0917972 0.312578 -0.321333
1765 1 18.5494 3.06654 20.404 -0.388972 0.400769 -1.00058 -1.40483
1766 1 20.6652 1.38382 21.8762 -0.395736 0.00277397 0.605417 0.207184
1767 1 13.756 2.02077 19.5333 -0.381843 0.779109 0.0788131 0.972861
1768 1 21.9238 2.10806 18.3666 -0.388805 -0.354123 -1.55916 1.16925
1769 1 21.7739 3.3412 23.4148 -0.416011 0.362373 -0.310777 0.234977
1770 1 13.75 8.49244 13.256 -0.388801 -0.290903 -1.32705 0.244202
1771 1 23.6946 3.48106 19.9534 -0.363139 -2.62799 0.81546 -0.670843
1772 1 24.1418 0.32986 13.0437 -0.379022 -1.8541 0.147 1.16355
1773 1 20.0717 2.04043 12.7242 -0.391158 0.0438898 0.279773 1.98736
1774 1 21.3046 9.52059 19.8465 -0.389089 -0.454387 0.264564 -1.81422
1775 1 14.4523 11.5395 19.3342 -0.409598 0.239987 -1.05026 0.225638
1776 1 20.4647 11.272 17.1075 -0.38539 -2.07854 -0.898394 -0.0141479
1777 1 18.2624 9.18023 20.1563 -0.321473 -0.923349 0.556131 0.862831
1778 1 20.5573 11.1903 23.6643 -0.337955 0.620612 2.04076 -0.703585
1779 1 18.3828 0.839084 18.3528 -0.432482 0.188528 0.0710327 -0.103418
1780 1 14.3278 11.6618 13.0851 -0.447836 0.0758115 -0.664687 0.492056
1781 1 17.1066 11.275 19.178 -0.358574 -0.277617 -0.604814 -1.28006
1782 1 22.763 6.25827 13.3343 -0.326601 1.59211 -0.298561 1.21174
1783 1 14.4531 11.0671 22.7751 -0.379653 -0.686809 1.1962 0.74936
1784 1 17.8049 2.06136 15.5855 -0.36942 -1.29255 1.1605 -1.02156
1785 1 21.0032 7.58798 24.6124 -0.415779 -0.181015 -0.176405 0.45902
1786 1 22.9549 5.81073 21.1032 -0.390944 0.680813 1.43658 0.484734
1787 1 14.8155 6.23122 24.5478 -0.418954 -0.267292 0.495189 0.837467
1788 1 12.7446 8.76871 22.492 -0.378925 1.91974 0.660199 1.6069
1789 1 21.9137 12.1283 20.0135 -0.331405 -2.02568 0.0569481 0.465415
1790 1 13.8561 2.31832 16.6154 -0.407032 -0.598546 1.55337 -1.37882
1791 1 22.1295 3.69231 16.0054 -0.385977 -0.317052 -0.138687 -0.12745
1792 1 13.1945 9.21815 19.8354 -0.390563 -0.0771491 -1.95605 0.367516
1793 2 23.5384 2.86351 15.1931 0.190608 0.244084 0.274907 -0.279407
1794 2 17.9591 5.51232 15.047 0.19356 0.130134 -0.666887 1.06121
1795 2 12.6785 6.80773 15.7285 0.203204 0.99018 -0.697826 1.39443
1796 2 16.7276 4.19807 16.8946 0.177685 -1.03119 0.493129 0.731859
1797 2 16.0767 11.5615 24.2019 0.195877 -1.92584 -0.250144 -0.110683
1798 2 18.9723 12.0723 14.4283 0.175714 0.101148 -0.0434433 0.111801
1799 2 17.8227 9.14484 23.3 0.193463 0.306401 0.199345 -0.890012
1800 2 18.1785 10.3049 14.0942 0.184234 0.0598162 0.313052 0.0875892
1801 2 21.1622 11.0705 12.8499 0.178472 0.349207 -0.0678408 -0.719507
1802 2 12.7232 1.03153 20.7167 0.173263 -1.21311 -0.938953 0.531103
1803 2 17.8921 7.08095 23.5942 0.181596 0.391243 0.17043 -0.0581582
1804 2 16.2941 4.16721 13.4987 0.195271 -0.46838 -1.44945 0.0206895
1805 2 24.0043 10.1774 16.5958 0.19183 -0.248486 0.0208707 -0.0837163
1806 2 15.4362 8.1688 14.5631 0.179774 0.915723 -0.163026 0.282514
1807 2 21.9702 10.0367 22.999 0.183673 0.048689 -1.05296 -0.538396
1808 2 23.627 4.8408 18.4875 0.171079 -0.405902 0.333418 -1.31582
1809 2 13.1326 3.75727 24.8826 0.177207 -0.225542 -0.444826 -0.10155
1810 2 12.8577 5.50409 17.3297 0.189778 -0.146765 -0.0784595 0.0469268
1811 2 21.9507 9.49223 16.3867 0.196485 -0.485628 0.25437 0.464885
1812 2 21.5293 5.88975 22.12 0.18237 -1.01929 -0.204958 0.80529
1813 2 20.3653 3.83257 13.2417 0.15756 -0.382413 1.95875 0.407791
1814 2 16.6739 3.22671 20.6725 0.190892 -1.29945 0.0209461 -0.0733333
1815 2 17.7009 5.9062 20.6237 0.189144 0.438049 -0.338513 0.272032
1816 2 16.8827 10.8932 15.5862 0.187219 -0.331243 -0.527545 0.631737
1817 2 19.3659 4.56985 17.3312 0.198742 0.441693 0.244409 0.434791
1818 2 24.3097 1.60343 24.1988 0.175698 0.739618 1.38234 -1.17353
1819 2 19.2292 8.53145 15.5377 0.17523 0.134103 0.244758 0.286186
1820 2 18.08 4.99712 22.5689 0.220754 -0.164219 -1.25392 0.477665
1821 2 15.5412 6.66076 19.4323 0.19009 1.09952 -0.0489163 0.146711
1822 2 24.1762 8.22187 19.317 0.190373 -0.729729 -0.657282 -0.0657946
1823 2 20.8373 3.45039 18.6217 0.181587 0.407588 0.0578264 0.373742
1824 2 17.0701 2.35069 24.6125 0.182341 0.931253 -0.155196 -0.62841
1825 2 13.1781 11.6922 16.2932 0.194773 1.25368 0.421229 -0.0757875
1826 2 13.5351 5.29184 22.1712 0.197736 0.10024 -0.449117 0.393954
1827 2 19.9913 9.10401 13.2854 0.192473 -0.203505 -0.537577 -0.217704
1828 2 23.7917 6.19162 24.3475 0.191037 -0.0556887 -0.0348467 -0.206052
1829 2 18.2864 2.19951 19.9891 0.185269 0.544311 1.13448 0.263403
1830 2 21.2643 2.0182 22.3412 0.182265 -0.291413 -0.323506 -0.276346
1831 2 14.6067 2.43104 19.9031 0.203139 -0.952757 -0.109958 -0.293982
1832 2 22.5498 2.529 18.9949 0.18133 0.00360387 -0.206698 -0.304432
1833 2 21.5189 4.29114 23.3498 0.186255 -0.316562 -0.466888 0.0327979
1834 2 13.0756 8.14313 13.8929 0.200064 0.459824 0.585141 -0.245747
1835 2 23.5627 4.20364 20.5759 0.202555 -0.213405 0.494523 0.40253
1836 2 23.4747 12.0427 13.0219 0.195474 0.602691 0.971607 0.0515316
1837 2 19.2648 1.84204 24.6326 0.186532 -0.0463845 0.290974 0.380066
1838 2 21.5795 10.443 19.6797 0.187423 -0.12557 0.184529 -0.336771
1839 2 14.2025 12.431 19.2496 0.188053 -1.30687 1.8621 -0.147813
1840 2 19.8092 11.8927 17.5318 0.173251 0.914083 -0.813189 -0.394274
1841 2 18.0357 8.29548 19.8885 0.218433 -0.0378644 -0.897483 -0.27436
1842 2 20.5789 12.1366 23.2948 0.192859 -0.152146 -1.78226 0.703994
1843 2 17.9216 0.0596285 18.7635 0.189062 0.145245 0.439041 -0.0989258
1844 2 13.4413 11.9911 12.8535 0.188945 0.313609 0.0589695 0.476197
1845 2 16.9771 10.9526 18.2294 0.182246 0.0491074 0.186828 1.16474
1846 2 23.3946 6.28388 14.096 0.201723 -0.280496 0.583147 -0.736807
1847 2 14.9649 10.555 22.1938 0.216773 1.06314 -0.792306 -1.26421
1848 2 17.1794 2.41066 14.8655 0.184869 0.918686 -0.641411 1.21504
1849 2 21.282 8.27289 24.007 0.184891 0.612494 0.256595 -0.374259
1850 2 23.3345 6.07073 22.026 0.175789 -0.187509 -0.547411 -1.4526
1851 2 14.589 5.98015 23.6265 0.181764 0.283245 0.21874 -0.00601749
1852 2 12.9373 9.05028 21.5786 0.171799 -0.137658 -0.0716715 -0.182834
1853 2 21.1243 12.3364 20.5949 0.198895 1.19667 0.074534 -0.897695
1854 2 14.2034 1.42934 16.5114 0.19133 -0.346582 -0.671029 -0.458843
1855 2 22.4974 4.43042 16.5457 0.192468 -0.0640417 -0.544697 0.0727931
1856 2 13.888 8.49308 19.7635 0.197721 -0.567563 0.917617 -0.267194
1857 2 24.6935 3.32584 14.1221 0.205693 -0.703861 -0.917397 0.798076
1858 2 18.7116 6.22616 14.005 0.195277 -0.175209 -0.163261 -0.356156
1859 2 23.9483 7.85545 15.5826 0.212479 -0.857489 0.595948 0.837842
1860 2 15.4027 3.43966 17.0566 0.180445 -0.52388 -0.10974 0.0132666
1861 2 17.484 11.1675 23.7356 0.203547 -0.0131016 -0.183126 -0.359057
1862 2 20.0445 12.3858 15.4726 0.187354 0.879169 -0.826534 2.88439
1863 2 18.3818 9.68334 21.8287 0.203591 -0.511778 -0.545299 0.223719
1864 2 17.3786 11.4491 13.4015 0.191406 -0.233328 0.109657 -0.138677
1865 2 21.3662 11.6756 14.1341 0.182604 -0.900666 1.50296 1.64344
1866 2 24.5174 1.36048 21.9819 0.171326 -0.415564 0.384943 1.3674
1867 2 16.6268 7.28673 24.2548 0.189285 -1.89118 -0.398742 0.707648
1868 2 15.1171 3.08391 13.491 0.198238 0.391486 0.397154 0.0569188
1869 2 24.3413 10.5807 18.0008 0.211247 0.170748 -0.730431 2.52695
1870 2 16.7251 7.22259 14.601 0.18428 -0.126228 0.523166 0.205922
1871 2 23.2513 9.22107 22.6308 0.189181 -0.574071 -0.31055 -0.000147073
1872 2 23.1262 6.19339 17.8832 0.200366 0.326626 -0.300427 -0.0502471
1873 2 13.9611 4.89287 12.9812 0.188591 -0.318246 -0.0794575 0.423589
1874 2 14.3943 5.36698 17.0532 0.202812 0.913835 -0.712853 -0.222634
1875 2 22.4668 9.64469 14.9189 0.192059 -0.0578027 -1.04116 1.66094
1876 2 20.8621 6.43652 23.4785 0.179919 0.0973122 0.682784 0.727194
1877 2 21.0337 4.29122 14.4466 0.171883 -0.289045 0.643923 0.629852
1878 2 15.5769 4.2798 20.8525 0.18531 -0.484436 0.08236 0.194603
1879 2 17.5735 5.54494 19.0459 0.202134 0.109915 0.0309292 0.536291
1880 2 16.4053 9.58382 16.3338 0.201854 -0.120843 0.121029 -0.362947
1881 2 18.6206 3.63716 16.3532 0.182737 0.0205849 0.00684087 -0.121108
1882 2 23.8473 2.92029 23.4242 0.185946 -0.0593855 -0.259141 0.130647
1883 2 18.4018 8.01376 16.7056 0.205758 1.23763 0.876373 -0.0166096
1884 2 19.2664 5.90885 22.2711 0.200041 1.49319 -0.325043 0.204696
1885 2 14.2744 6.59412 18.5942 0.186656 -0.614375 -0.271039 -0.78118
1886 2 22.6409 8.36091 19.3323 0.184846 -0.560023 0.0956362 -0.0375062
1887 2 21.1803 4.68174 19.5719 0.19615 -0.986284 -0.564442 -0.710617
1888 2 17.2908 1.07612 23.8175 0.19327 0.385836 -0.143797 0.00548252
1889 2 14.8353 11.72 16.1577 0.188568 -1.55382 0.0885434 -0.0555049
1890 2 14.4727 6.09852 21.3723 0.194133 0.464056 -0.347347 0.672654
1891 2 18.4915 8.4717 13.0702 0.185101 1.51046 1.02908 0.912286
1892 2 24.5605 7.05816 23.2585 0.182634 0.00928003 0.0208602 0.19129
1893 2 19.2507 3.45387 19.7654 0.174939 -1.12436 -0.268984 1.29074
1894 2 19.9701 1.98208 21.5444 0.173227 0.0618459 -0.430725 0.103814
1895 2 13.6903 2.26924 18.6151 0.197397 -0.0470566 0.0839583 -0.888022
1896 2 21.7504 1.19362 18.7911 0.178748 0.38936 1.71374 -0.907976
1897 2 21.2841 2.89656 24.1361 0.190126 0.109448 0.279323 -0.193013
1898 2 13.8325 9.43723 13.2944 0.204114 -0.10338 0.874272 0.00427948
1899 2 24.5737 3.22653 19.9478 0.19865 2.86279 -1.07422 0.048202
1900 2 23.8123 0.958844 13.7837 0.187754 1.19995 -1.07624 -1.53777
1901 2 19.873 1.79912 13.6957 0.191048 0.656532 -0.147176 -2.46012
1902 2 21.594 9.419 20.7227 0.179549 0.49732 -0.628924 2.34659
1903 2 15.4076 11.6522 19.3289 0.190495 0.721107 -0.820987 0.129174
1904 2 19.9441 10.4209 16.9175 0.18062 0.820852 1.60702 0.508042
1905 2 19.1365 9.40459 19.8953 0.204925 1.66993 -0.164845 -0.627165
1906 2 19.7364 10.786 23.3801 0.189907 -0.640522 -0.263994 -0.31732
1907 2 17.8877 1.07456 17.5604 0.196915 0.0819378 0.159129 0.00693269
1908 2 14.3724 11.5793 14.0626 0.181705 -0.419375 0.643296 -0.726064
1909 2 17.4941 10.535 19.705 0.210491 -0.32609 -0.0275993 -0.489014
1910 2 22.1751 5.53113 13.5493 0.1844 -0.88189 -0.449235 -0.367569
1911 2 14.1777 11.8467 22.2668 0.203551 -0.160845 -0.399426 0.262493
1912 2 18.4888 1.57342 15.1261 0.171242 0.246106 -0.446751 -0.0466399
1913 2 21.8002 7.20469 12.648 0.198592 -0.624179 0.599806 -0.249747
1914 2 23.158 6.55753 20.4197 0.181998 -0.331712 -0.967364 1.14802
1915 2 14.3022 7.03197 24.8084 0.18869 0.489361 -0.368768 -0.112231
1916 2 13.5231 9.16834 23.0364 0.184831 -2.38147 -0.818222 -1.26191
1917 2 22.6356 12.3886 20.5747 0.192351 1.14882 0.356529 0.382066
1918 2 13.3722 2.55301 15.7364 0.17706 0.714478 -0.923418 2.14592
1919 2 21.7936 3.00905 16.6159 0.202344 0.410679 0.322187 -0.106214
1920 2 13.5508 10.09 19.6636 0.212945 0.798684 0.778313 -0.327162
1921 1 11.8282 15.0055 14.6281 -0.419167 0.988387 0.569901 -0.794266
1922 1 5.36008 18.4451 14.2529 -0.357349 0.0141851 0.169296 -0.563336
1923 1 12.1713 19.7847 15.1548 -0.372749 0.713073 -0.729663 -1.96133
1924 1 3.37738 16.7273 17.2841 -0.403079 0.722186 -0.531621 -0.571084
1925 1 4.53818 24.1742 24.3435 -0.357145 1.55556 1.3507 0.967323
1926 1 7.34141 12.6228 14.6217 -0.37493 -0.616813 1.02774 -1.77133
1927 1 5.73118 22.3449 22.7535 -0.428725 0.170755 -0.178022 0.500209
1928 1 5.32051 23.6337 14.2715 -0.353622 -0.33108 -0.0155506 -0.0842072
1929 1 9.38723 23.5853 13.5436 -0.387938 0.565838 -1.08025 -0.37113
1930 1 12.0606 13.0854 21.3622 -0.433874 1.18876 0.606565 -1.34037
1931 1 5.01172 20.1637 24.1846 -0.331847 0.955915 -0.327783 -0.698726
1932 1 3.64112 15.6361 13.5247 -0.330708 0.889311 1.1637 0.0436228
1933 1 11.8795 23.3473 17.1421 -0.393743 0.000165148 0.548529 -2.456
1934 1 3.87832 20.4924 14.9539 -0.466336 -0.330834 0.363851 0.223203
1935 1 9.81599 21.6041 22.626 -0.363035 0.223732 1.51113 0.472856
1936 1 11.002 17.7565 17.6151 -0.319971 -0.0682499 0.448641 1.85975
1937 1 0.967929 16.5656 13.2836 -0.360345 0.672345 0.707565 -0.431743
1938 1 1.23777 18.4355 17.2054 -0.377625 -0.0662209 1.29939 -0.359663
1939 1 10.1005 21.5332 15.7677 -0.352168 0.610632 0.558639 -1.69812
1940 1 8.38919 18.1657 22.8361 -0.372171 0.711511 -0.532392 -1.7062
1941 1 8.06088 17.1666 13.7454 -0.369336 0.759643 -2.89655 -0.52588
1942 1 3.22974 15.7877 20.7052 -0.40477 1.86583 -0.265097 -0.112377
1943 1 5.01768 18.6564 19.7331 -0.413737 -0.329793 0.403994 0.477608
1944 1 3.94037 22.9962 16.3947 -0.402935 0.378357 0.0813221 -0.0134816
1945 1 6.25043 17.0021 16.6547 -0.381407 -0.63954 -0.730249 -0.488684
1946 1 12.1833 14.7917 23.5519 -0.379166 -1.25606 -0.766323 1.24982
1947 1 6.75712 21.0202 16.5141 -0.407971 -0.602674 -0.400519 -0.512299
1948 1 5.86984 18.2839 22.2361 -0.347299 -1.83637 0.48861 -0.207468
1949 1 2.18034 19.3554 19.4337 -0.398472 -0.55824 0.88051 1.75098
1950 1 10.8884 20.1367 19.2267 -0.355461 1.49866 0.833852 0.0711191
1951 1 8.02757 16.7233 19.0126 -0.330304 0.71076 -0.0631537 -0.0449733
1952 1 5.28591 14.3673 24.0079 -0.421634 -0.560449 0.529862 0.285653
1953 1 1.52997 24.6071 15.8978 -0.404055 0.373118 -0.598039 0.153185
1954 1 2.03991 17.934 22.1525 -0.305829 -0.795917 0.766941 -1.76427
1955 1 6.66036 21.4956 13.6553 -0.340548 -1.41191 -1.22424 -1.06505
1956 1 11.7485 18.6237 23.4534 -0.374299 0.248058 -0.0505431 -0.892342
1957 1 6.10965 15.5134 20.4037 -0.386028 0.628727 -0.634118 -1.40988
1958 1 8.21863 13.8257 21.8762 -0.395119 -0.933407 0.663714 -0.332502
1959 1 1.30814 14.4626 19.5337 -0.371859 1.0181 -0.0384894 1.70815
1960 1 9.47838 14.5591 18.3626 -0.385977 -0.00386174 -1.36836 1.63258
1961 1 9.33343 15.7884 23.4127 -0.412578 0.356432 -0.265511 0.235289
1962 1 1.3121 20.9345 13.2497 -0.390654 -0.388198 -0.971616 0.395708
1963 1 11.2485 15.9229 19.953 -0.357857 -1.65865 0.627666 -0.620759
1964 1 11.7012 12.7736 13.0431 -0.37376 -1.87608 -0.430334 0.810124
1965 1 7.62896 14.4848 12.7239 -0.386511 0.376847 0.466492 1.82427
1966 1 8.86125 21.9637 19.8461 -0.390748 -0.238276 1.01602 -1.91809
1967 1 2.00823 23.9812 19.3343 -0.40769 0.389053 0.458207 0.0705939
1968 1 8.02476 23.7149 17.1055 -0.384201 -1.51183 -0.871563 -0.179411
1969 1 5.82113 21.6242 20.1551 -0.320194 -1.27828 0.524235 0.940535
1970 1 8.10606 23.6368 23.6676 -0.34689 0.301275 0.727164 -0.369446
1971 1 5.9379 13.2835 18.3546 -0.428675 0.925938 0.132941 0.579696
1972 1 1.88203 24.103 13.0817 -0.444549 -0.403453 -0.573732 1.34039
1973 1 4.66405 23.7267 19.1728 -0.348775 -0.371703 -0.564409 -1.37459
1974 1 10.3217 18.7043 13.3352 -0.325836 1.58497 -0.266683 1.18671
1975 1 2.01115 23.5137 22.7731 -0.386939 -0.739617 1.11411 1.01146
1976 1 5.35843 14.5017 15.5836 -0.36593 -1.07392 1.04751 -1.22974
1977 1 8.56211 20.0349 24.6169 -0.41874 -0.210921 0.218071 0.111577
1978 1 10.5084 18.2558 21.1012 -0.393404 0.647866 1.27506 0.396477
1979 1 2.37013 18.6711 24.5488 -0.418649 -0.697584 1.26981 1.15862
1980 1 0.302724 21.2151 22.4954 -0.378513 1.51294 0.42869 1.18689
1981 1 9.47037 24.5728 20.0132 -0.326464 -1.30621 0.270461 0.993513
1982 1 1.41009 14.7639 16.6125 -0.411758 -0.818684 2.24711 -1.22705
1983 1 9.68724 16.133 16.001 -0.390641 -0.192515 0.278356 -0.114298
1984 1 0.749575 21.6669 19.8366 -0.395203 0.355139 -2.25662 0.340153
1985 2 11.0965 15.3054 15.174 0.193448 -0.34234 0.515152 0.204852
1986 2 5.50671 17.9492 15.0462 0.193689 0.168611 -0.605014 0.992745
1987 2 0.24431 19.2523 15.7288 0.203271 0.922474 -0.615327 1.32436
1988 2 4.28341 16.6448 16.9211 0.179018 -0.569359 0.453629 0.492239
1989 2 3.64333 24.0073 24.1976 0.197785 -2.80549 -0.396317 -0.230854
1990 2 6.52888 24.5189 14.4333 0.176884 0.00462918 -0.125623 0.0807069
1991 2 5.36999 21.5728 23.2885 0.190094 0.420555 0.461054 -0.972052
1992 2 5.74234 22.7645 14.0745 0.184769 0.153861 -0.0160612 0.0593024
1993 2 8.70674 23.5231 12.8563 0.176786 0.359702 -0.0797161 -0.745159
1994 2 0.270726 13.4885 20.712 0.172255 -1.24304 -1.0485 0.579903
1995 2 5.46644 19.5176 23.5971 0.179452 0.144109 0.394987 0.167906
1996 2 3.84696 16.6122 13.5072 0.196771 -0.55382 -1.50314 0.00459054
1997 2 11.5482 22.6329 16.5759 0.192162 -0.139452 0.181517 0.267414
1998 2 2.99839 20.6161 14.5807 0.185121 0.221302 -0.12162 -0.066145
1999 2 9.52608 22.4785 23.009 0.184583 0.0190331 -0.97565 -0.533192
2000 2 11.1779 17.2877 18.4918 0.170162 -0.405796 0.390924 -1.41091
2001 2 0.706028 16.198 24.8902 0.180222 -0.435522 -0.678291 -0.744631
2002 2 0.433675 17.9603 17.3305 0.192114 -1.20359 -0.643035 0.204242
2003 2 9.50674 21.9372 16.3877 0.197722 -0.477056 0.24368 0.439622
2004 2 9.07863 18.3295 22.1276 0.184555 -0.821847 -0.0989175 0.63876
2005 2 7.93281 16.2747 13.2524 0.157338 -0.441041 1.93883 0.302948
2006 2 4.22376 15.6579 20.6686 0.192641 -1.2637 0.199138 -0.0408557
2007 2 5.27443 18.3384 20.6441 0.184911 0.102912 0.117046 -0.884181
2008 2 4.43446 23.3488 15.585 0.186747 -0.310459 -0.617396 0.651894
2009 2 6.92141 17.0167 17.3357 0.198534 0.352884 0.182601 0.325765
2010 2 11.8782 14.0428 24.1947 0.174935 0.728531 1.31756 -1.10536
2011 2 6.80428 20.9973 15.5379 0.17751 0.0436483 0.183006 0.310849
2012 2 5.61346 17.4313 22.5785 0.221164 0.137212 -0.405904 0.144582
2013 2 3.08455 19.0945 19.4314 0.192065 1.5891 -0.162833 0.165575
2014 2 11.7468 20.6706 19.3226 0.189058 -1.20582 -0.832307 -0.110648
2015 2 8.4027 15.8848 18.6302 0.179422 0.220346 0.295763 0.413573
2016 2 4.64912 14.8148 24.6027 0.186331 0.417436 0.0740783 -0.208902
2017 2 0.749908 24.1343 16.2978 0.195869 0.937265 0.319198 0.00164905
2018 2 1.09529 17.741 22.1734 0.198454 -0.124023 -0.519188 0.446043
2019 2 7.55367 21.5392 13.2845 0.190328 -0.400303 -0.516624 -0.106315
2020 2 11.359 18.6519 24.3327 0.193875 -0.361507 -0.0619224 0.458706
2021 2 5.86729 14.6613 19.9736 0.184746 0.291641 0.644261 0.176276
2022 2 8.79984 14.4524 22.3375 0.183218 0.210173 0.0703728 0.0633033
2023 2 2.16537 14.8777 19.8899 0.201858 -1.01836 -0.169296 -0.158078
2024 2 10.1006 14.9826 19.0163 0.179584 -0.29089 -0.41248 -0.71466
2025 2 9.06544 16.733 23.3639 0.18475 -0.254024 -0.351272 -0.0576137
2026 2 0.637936 20.5791 13.892 0.199391 0.590455 0.718977 -0.376585
2027 2 11.1252 16.6492 20.5749 0.200893 -0.27321 0.453185 0.369821
2028 2 11.0304 24.4742 13.0207 0.19494 0.750662 1.17769 0.0710768
2029 2 6.83371 14.2836 24.6347 0.188306 -0.295327 0.219929 0.246144
2030 2 9.13115 22.9096 19.6815 0.183652 -0.317272 -0.540591 -0.214264
2031 2 1.74654 24.8965 19.2475 0.18168 -0.88944 0.440166 -0.00399148
2032 2 7.37399 24.3176 17.5233 0.176651 0.537293 -0.277884 -0.0703358
2033 2 5.59622 20.7401 19.8877 0.218293 -0.0906392 -0.964526 -0.275974
2034 2 8.13716 24.5594 23.3202 0.197314 -0.248804 -0.814965 0.247846
2035 2 5.48442 12.5104 18.7578 0.190186 -0.0698941 0.0682955 0.113732
2036 2 0.980338 24.4289 12.8597 0.184572 0.718935 -0.0660571 0.490787
2037 2 4.53835 23.387 18.2314 0.182516 -0.00588165 0.240812 1.07281
2038 2 10.9403 18.7346 14.1046 0.201258 -0.168223 0.596704 -0.701231
2039 2 2.52271 22.989 22.2058 0.219121 1.07734 -0.76695 -1.36324
2040 2 4.74062 14.8588 14.8618 0.183054 0.804141 -0.59971 1.24432
2041 2 8.84966 20.7165 23.995 0.183459 0.507646 -0.122856 -0.0225068
2042 2 10.8911 18.5108 22.0191 0.177265 -0.180821 -0.473513 -1.39586
2043 2 2.15252 18.4372 23.6224 0.181561 0.224055 0.186897 -0.0299165
2044 2 0.491846 21.4964 21.5753 0.172634 -0.125649 -0.0989713 0.0272422
2045 2 8.6948 24.7927 20.6041 0.196826 0.974556 0.0717542 -0.890172
2046 2 1.75559 13.886 16.5339 0.195142 -0.128442 -1.27633 -0.609503
2047 2 10.0437 16.8901 16.5425 0.192771 -0.200768 -0.958015 -0.0546292
2048 2 1.45155 20.9268 19.7675 0.19575 -0.942894 1.29906 -0.240364
2049 2 12.2479 15.7676 14.1196 0.206123 -0.728305 -0.946318 0.841498
2050 2 6.2621 18.6563 13.9943 0.196713 0.0397759 -0.115162 -0.360186
2051 2 11.5047 20.2768 15.5859 0.212111 -1.27747 0.948928 1.11084
2052 2 2.96168 15.8775 17.0552 0.179658 -0.374473 0.213101 0.0737978
2053 2 5.02623 23.6236 23.7537 0.204742 0.672681 -0.89023 -1.13141
2054 2 7.61242 24.839 15.467 0.188778 0.875058 -0.803599 2.87943
2055 2 5.93024 22.1297 21.8113 0.200213 -0.620634 -0.410991 0.775423
2056 2 4.91843 23.9061 13.4029 0.192421 -0.0947547 0.00459771 0.0614417
2057 2 8.90935 24.1287 14.144 0.179596 -0.460308 1.00357 1.10621
2058 2 12.0587 13.8104 21.9945 0.169039 -0.324807 -0.00910351 0.894234
2059 2 4.16445 19.7268 24.227 0.186138 -1.08423 -0.0292373 0.610972
2060 2 2.6823 15.507 13.4981 0.201132 0.0238066 0.432852 0.0382931
2061 2 11.8985 23.0372 18.0087 0.211943 0.111252 -0.678483 2.061
2062 2 4.27082 19.6695 14.6109 0.188272 0.0516422 0.0844867 -0.0327049
2063 2 10.7931 21.6563 22.6341 0.19075 -0.251644 -0.283094 -0.00993026
2064 2 10.6726 18.6535 17.8855 0.198748 0.56056 -0.818514 -0.170765
2065 2 1.50682 17.3409 12.9824 0.188403 -0.282471 -0.072479 0.361375
2066 2 1.9388 17.8129 17.0602 0.204112 1.18776 -0.856489 -0.286409
2067 2 10.0152 22.067 14.9275 0.195205 -0.0927572 -0.632536 1.07898
2068 2 8.40766 18.8796 23.486 0.181317 0.171866 0.746964 0.742989
2069 2 8.58444 16.7398 14.4563 0.170737 -0.333629 0.733091 0.56539
2070 2 3.11032 16.73 20.8563 0.185876 -0.288093 -0.19931 0.160619
2071 2 5.12025 17.9963 19.0432 0.201002 0.151414 -0.142316 0.343885
2072 2 3.96469 22.0211 16.3314 0.199886 -0.107438 0.640033 -0.366494
2073 2 6.17337 16.0725 16.3437 0.181564 0.0876756 0.415966 0.0681171
2074 2 11.3913 15.3599 23.4405 0.183965 0.314026 -0.472273 0.138754
2075 2 5.97277 20.4706 16.6965 0.208887 0.644272 0.467506 0.0778984
2076 2 6.82104 18.3537 22.2815 0.20043 1.46116 -0.410155 0.214069
2077 2 1.82554 19.0382 18.6098 0.188673 -0.818972 -0.414271 -1.24034
2078 2 10.1883 20.8075 19.3138 0.185217 -0.386534 0.037048 0.00806063
2079 2 8.74194 17.1214 19.5586 0.195119 -0.89232 -0.407597 -0.53698
2080 2 4.8456 13.5337 23.8289 0.195791 0.125616 -0.522197 -0.0635143
2081 2 2.37528 24.1652 16.1372 0.190443 -0.882284 -0.16707 0.169378
2082 2 2.02187 18.5331 21.3664 0.194631 0.509168 -0.174336 0.510292
2083 2 6.04911 20.9256 13.037 0.183556 1.60323 1.11763 1.22455
2084 2 12.1283 19.4852 23.2491 0.184148 0.165174 0.400419 0.0943695
2085 2 6.80553 15.9019 19.7556 0.174356 -1.10586 -0.165315 1.41993
2086 2 7.51515 14.4404 21.5451 0.170046 0.492 -0.876052 0.279875
2087 2 1.25452 14.7093 18.6304 0.198261 -0.2009 0.288639 -1.75216
2088 2 9.31132 13.6417 18.7843 0.177343 0.348348 1.7256 -0.938016
2089 2 8.84391 15.3489 24.1323 0.188718 0.0866423 0.132287 -0.0953288
2090 2 1.40266 21.8881 13.2895 0.203242 -0.169713 0.388261 -0.00509055
2091 2 12.1412 15.6603 19.9643 0.195436 1.91558 -0.858648 0.0214271
2092 2 11.3766 13.3876 13.7739 0.188984 1.0221 -0.725314 -1.12389
2093 2 7.41387 14.2654 13.682 0.191385 0.656619 -0.259201 -1.98473
2094 2 9.14418 21.8783 20.7269 0.178087 0.488602 -0.648964 2.30331
2095 2 2.97335 24.1144 19.327 0.188169 0.151688 -0.911285 0.134801
2096 2 7.49972 22.8843 16.9201 0.182145 0.648473 1.05068 0.351298
2097 2 6.6938 21.8376 19.9042 0.205261 2.05488 -0.0424373 -0.722192
2098 2 7.29245 23.2012 23.3713 0.191672 -0.254354 0.0688596 -0.202179
2099 2 5.45454 13.5095 17.5769 0.200785 -0.465498 0.448693 -0.895255
2100 2 1.91103 24.0254 14.0824 0.174992 -0.363065 0.681649 -1.57573
2101 2 5.04929 22.9931 19.6991 0.211584 -0.21145 -0.153389 -0.306476
2102 2 9.73939 17.9767 13.5532 0.184207 -0.95472 -0.542614 -0.370282
2103 2 1.72893 24.2928 22.2747 0.205801 -0.126195 -0.346264 0.0999172
2104 2 6.03184 14.011 15.1027 0.168676 0.145405 -0.353543 0.142565
2105 2 9.33312 19.6414 12.6475 0.199256 -0.203442 0.462482 -0.0399534
2106 2 10.7125 18.9908 20.4086 0.183424 -0.319922 -0.852769 1.17681
2107 2 1.84637 19.491 24.8261 0.186681 0.978709 -1.09587 -0.398122
2108 2 1.06533 21.5978 23.043 0.18743 -1.95841 -0.56943 -1.07392
2109 2 10.1988 24.8263 20.5957 0.189835 0.636192 0.123433 -0.162956
2110 2 0.926001 15.0006 15.734 0.179571 0.735229 -1.00286 2.12739
2111 2 9.33718 15.4431 16.5923 0.204732 0.431049 0.364769 0.0315889
2112 2 1.11773 22.5361 19.6607 0.212002 0.743455 0.682773 -0.296037
2113 1 24.2779 15.0077 14.6235 -0.415837 0.201977 0.6854 -0.183841
2114 1 17.8063 18.4408 14.2526 -0.356699 -0.305362 0.511989 -1.05976
2115 1 24.6158 19.7814 15.1529 -0.373259 -0.257241 0.0932766 -2.01805
2116 1 15.8229 16.7228 17.2826 -0.402827 1.63189 0.270384 -0.575214
2117 1 16.9863 24.177 24.3477 -0.358081 0.625311 0.373641 -0.0507975
2118 1 19.7864 12.6237 14.6276 -0.378656 -0.710697 1.24641 -2.2845
2119 1 18.1755 22.3469 22.7526 -0.42024 0.221051 0.194071 0.662818
2120 1 17.7648 23.6357 14.274 -0.358584 0.150765 -1.02498 -0.191003
2121 1 21.8356 23.5821 13.5451 -0.38827 0.573183 -1.77214 -1.61454
2122 1 24.5036 13.087 21.3662 -0.435707 1.50113 0.922393 -1.48917
2123 1 17.4549 20.1629 24.1858 -0.333934 1.37107 0.170365 -0.530429
2124 1 16.0825 15.6363 13.5266 -0.331498 0.690371 1.39315 0.0306219
2125 1 24.3241 23.3446 17.1439 -0.39676 0.0822855 0.968335 -3.05007
2126 1 16.3268 20.4946 14.954 -0.465855 0.0894352 0.320996 0.397715
2127 1 22.2665 21.6029 22.623 -0.364149 0.18489 1.55072 0.471326
2128 1 23.4464 17.7565 17.617 -0.323071 0.211111 -0.214673 1.56308
2129 1 13.4136 16.568 13.2807 -0.353174 0.622902 0.636083 -0.412738
2130 1 13.6849 18.4335 17.206 -0.375898 0.216296 0.572654 -0.467034
2131 1 22.5449 21.5337 15.7638 -0.350683 0.371381 0.948286 -1.83351
2132 1 20.8324 18.1655 22.8361 -0.364941 0.78433 -0.842359 -2.06225
2133 1 20.5065 17.1699 13.7483 -0.372489 0.55083 -2.7954 -0.826155
2134 1 15.6761 15.7821 20.7056 -0.400731 2.31999 -0.484703 -0.192045
2135 1 17.4668 18.6551 19.7343 -0.409661 -0.528848 0.473923 -0.59722
2136 1 16.3849 22.9979 16.3957 -0.400037 0.295736 0.542802 0.162077
2137 1 18.6955 17.0045 16.6545 -0.379755 -0.711279 -0.416734 -0.457705
2138 1 24.6256 14.7937 23.5547 -0.380107 -0.636754 -0.442205 0.85677
2139 1 19.2055 21.0149 16.5177 -0.401902 -0.849133 -0.588633 -0.7497
2140 1 18.3124 18.2833 22.2334 -0.352074 -1.43999 1.00076 -0.351366
2141 1 14.6233 19.3536 19.4349 -0.398857 0.0366157 0.826785 1.9507
2142 1 23.3345 20.1377 19.2241 -0.35122 0.301148 0.317312 0.0494253
2143 1 20.4712 16.7251 19.0155 -0.329796 0.370767 -0.199916 -0.314444
2144 1 17.736 14.3656 24.004 -0.416937 -1.10478 0.634202 0.707921
2145 1 13.9758 24.6042 15.8936 -0.416191 0.350132 -0.915176 0.421338
2146 1 14.484 17.9332 22.1539 -0.306362 -1.35978 0.630016 -1.73943
2147 1 19.1023 21.4949 13.6566 -0.330819 -1.55417 -1.1704 -0.860977
2148 1 24.1932 18.6234 23.4579 -0.375306 0.415258 0.694668 -0.653095
2149 1 18.5598 15.5115 20.4073 -0.385716 0.532563 -0.678524 -1.50667
2150 1 20.6634 13.8239 21.8727 -0.395153 -0.298153 0.711904 0.0671342
2151 1 13.7522 14.4631 19.5346 -0.381042 1.16113 0.248409 1.2109
2152 1 21.9274 14.5512 18.3657 -0.389385 -0.489695 -1.94548 1.30107
2153 1 21.7728 15.787 23.4114 -0.417101 0.333196 -0.159405 0.201865
2154 1 13.7549 20.9329 13.2546 -0.396624 -0.349723 -0.920153 0.376421
2155 1 23.6948 15.9251 19.9564 -0.364947 -1.72391 0.704814 -0.53627
2156 1 24.1448 12.778 13.044 -0.380191 -1.55879 0.0881252 1.07041
2157 1 20.0722 14.4823 12.7259 -0.389614 -0.00821718 0.409776 1.36934
2158 1 21.3035 21.963 19.8442 -0.386247 -0.366903 0.409246 -1.68488
2159 1 14.4554 23.9872 19.3337 -0.412368 0.423866 -0.99677 0.240967
2160 1 20.4664 23.7136 17.1054 -0.38323 -2.09071 -1.02749 -0.0692122
2161 1 18.269 21.6291 20.1576 -0.3231 -1.88354 -0.134626 0.934107
2162 1 20.5567 23.6367 23.6638 -0.343865 -0.124483 0.852911 -0.60246
2163 1 18.3858 13.2837 18.3567 -0.428276 0.387852 0.29953 -0.180329
2164 1 14.324 24.1071 13.0834 -0.447013 0.166691 -0.716547 0.484691
2165 1 17.1045 23.7237 19.1743 -0.353583 -0.34695 -0.464972 -1.30422
2166 1 22.7622 18.7028 13.3341 -0.325917 1.84544 -0.0697388 1.23338
2167 1 14.4569 23.5148 22.778 -0.381579 -1.1287 1.70423 1.1225
2168 1 17.8056 14.5055 15.5868 -0.36524 -1.56904 1.4211 -0.720681
2169 1 21.0049 20.0316 24.6157 -0.415427 -0.242928 0.235393 0.147959
2170 1 22.9548 18.2507 21.1031 -0.389947 0.600179 1.55494 0.222397
2171 1 14.8106 18.6736 24.5425 -0.417431 0.118304 0.154236 1.04355
2172 1 12.745 21.2162 22.4946 -0.380794 1.54364 0.498136 1.09587
2173 1 21.9154 24.5756 20.0131 -0.331224 -1.10902 0.103932 0.702326
2174 1 13.8561 14.7675 16.6148 -0.4119 -0.744257 1.6179 -1.66125
2175 1 22.1316 16.1353 16.0037 -0.385127 -0.178741 0.20397 -0.390441
2176 1 13.1945 21.664 19.839 -0.383585 -0.293255 -2.74846 0.514497
2177 2 23.5343 15.325 15.171 0.189661 0.160799 0.172549 -0.143067
2178 2 17.9554 17.9585 15.0379 0.19534 0.194429 -1.05087 1.65562
2179 2 12.7043 19.2556 15.7372 0.202849 0.543619 -0.244315 0.908155
2180 2 16.7394 16.6503 16.902 0.178959 -1.20992 0.419811 0.73768
2181 2 16.0631 24.0096 24.2011 0.193845 -1.17951 -0.12315 -0.0142104
2182 2 18.9738 24.5133 14.4351 0.174816 -0.0149192 -0.0708226 0.0281012
2183 2 17.8149 21.5983 23.2996 0.192935 0.295441 0.134689 -0.817132
2184 2 18.1918 22.7368 14.076 0.180679 -0.185069 0.848382 0.283136
2185 2 21.1505 23.5115 12.8348 0.175614 0.872964 0.0838826 -0.042245
2186 2 12.7107 13.4818 20.7149 0.174808 -0.988267 -0.863274 0.363935
2187 2 17.8994 19.5221 23.5992 0.181107 0.397212 0.187137 -0.0673128
2188 2 16.2826 16.6152 13.5068 0.193697 -0.389447 -1.56578 0.00354329
2189 2 23.9748 22.6358 16.5932 0.191672 -0.231119 -0.0066677 -0.031187
2190 2 15.458 20.6262 14.5806 0.187065 -0.219117 -0.0472054 -0.240724
2191 2 21.9795 22.4794 23.0058 0.184756 0.00326509 -1.00692 -0.54834
2192 2 23.6229 17.2811 18.485 0.171404 -0.375703 0.323883 -1.24668
2193 2 13.1235 16.1964 24.8931 0.177026 -0.314467 -0.585526 -0.330919
2194 2 12.879 17.9479 17.3176 0.189978 -1.04214 -0.429708 0.196785
2195 2 21.942 21.9353 16.3883 0.196493 -0.236495 0.0943673 0.139613
2196 2 21.5293 18.3466 22.1403 0.183193 -0.832661 -0.194941 0.545477
2197 2 20.3711 16.2838 13.2405 0.157263 -0.378716 1.98885 0.447168
2198 2 16.6823 15.6609 20.6582 0.19092 -1.63802 0.20141 0.0133126
2199 2 17.7007 18.3581 20.6353 0.188293 0.327718 -0.234156 -0.141069
2200 2 16.8755 23.3475 15.5903 0.188554 -0.221868 -0.502635 0.476172
2201 2 19.3604 17.0056 17.3374 0.198386 0.458426 0.228826 0.45005
2202 2 24.34 14.0688 24.1983 0.180239 0.414584 0.872514 -0.782216
2203 2 19.235 20.9778 15.5364 0.175245 0.146915 0.274723 0.50166
2204 2 18.0837 17.437 22.5778 0.21955 -0.154667 -1.01434 0.373981
2205 2 15.5401 19.1059 19.4228 0.190469 1.12629 -0.0213537 0.214106
2206 2 24.1601 20.662 19.3008 0.19278 -0.0637597 -0.243455 0.0209946
2207 2 20.8419 15.8926 18.6214 0.180405 0.262038 0.244084 0.441951
2208 2 17.0944 14.8109 24.6233 0.183186 0.82977 -0.198288 -0.644048
2209 2 13.1753 24.1389 16.2901 0.193544 1.31914 0.464936 -0.123155
2210 2 13.5268 17.7503 22.1685 0.196261 0.332887 -0.494123 0.510357
2211 2 19.9851 21.5588 13.2716 0.192113 -0.264374 -0.522508 -0.147307
2212 2 23.8124 18.6544 24.3501 0.190785 -0.24301 -0.116078 0.0969305
2213 2 18.2914 14.6643 19.9763 0.184601 0.415639 0.73525 0.213055
2214 2 21.2535 14.4552 22.3439 0.181684 -0.125236 -0.24562 -0.184491
2215 2 14.6167 14.8809 19.8966 0.200279 -1.246 -0.269841 -0.289178
2216 2 22.5443 14.9764 18.9976 0.180687 0.0753519 -0.202284 -0.255503
2217 2 21.5057 16.7372 23.3447 0.185677 -0.24826 -0.607565 0.0644191
2218 2 13.0811 20.5687 13.893 0.199206 0.584825 0.75948 -0.375156
2219 2 23.5551 16.6473 20.5865 0.20155 -0.133329 0.303079 0.205738
2220 2 23.4791 24.4794 13.0356 0.194965 0.654894 0.986594 -0.02879
2221 2 19.262 14.2936 24.6294 0.185946 -0.0260363 0.288705 0.34813
2222 2 21.5737 22.8926 19.6916 0.185545 -0.149953 0.108541 -0.440706
2223 2 14.1922 24.8732 19.2311 0.187257 -1.30387 1.80558 -0.170031
2224 2 19.8083 24.329 17.5209 0.173415 0.84348 -0.60788 -0.269217
2225 2 18.0367 20.735 19.8889 0.218576 0.117584 -0.401174 -0.131588
2226 2 20.5684 24.5683 23.3202 0.195002 -0.159293 -1.04668 0.342592
2227 2 17.9499 12.5026 18.7761 0.190671 -0.0890424 0.247016 -0.0876916
2228 2 13.4389 24.4339 12.853 0.189353 0.195215 0.105415 0.428236
2229 2 16.9832 23.3916 18.2316 0.18291 -0.00528802 0.190173 1.04841
2230 2 23.4026 18.7255 14.0915 0.202057 -0.304524 0.645161 -0.794259
2231 2 14.9519 23.0089 22.1942 0.217705 1.43283 -1.19832 -1.72414
2232 2 17.2003 14.8559 14.8612 0.185035 0.575615 -0.475462 1.15304
2233 2 21.2887 20.7212 24.0072 0.183339 0.480435 0.0105161 -0.180604
2234 2 23.335 18.4998 22.0182 0.177276 -0.123254 -0.450003 -1.23698
2235 2 14.5996 18.4302 23.6239 0.184627 0.16534 0.147617 -0.29924
2236 2 12.9244 21.5198 21.5786 0.172241 -0.131359 -0.170943 0.110517
2237 2 21.1371 24.7662 20.594 0.198809 0.756065 0.192521 -0.654848
2238 2 14.208 13.8766 16.5112 0.191085 -0.466225 -0.495665 -0.521044
2239 2 22.4936 16.8764 16.5442 0.193005 -0.0623847 -0.572625 0.0716308
2240 2 13.8836 20.9289 19.7677 0.198962 -0.625738 1.03277 -0.252255
2241 2 24.6822 15.774 14.1272 0.204412 -0.494742 -0.781613 0.612442
2242 2 18.7042 18.6703 14.0188 0.196835 0.335726 -0.0086553 -0.544034
2243 2 23.9468 20.2932 15.5894 0.211242 -0.711398 0.511527 0.715083
2244 2 15.4029 15.8908 17.0702 0.183415 -0.64247 -0.566404 -0.159765
2245 2 17.4825 23.6144 23.7359 0.202092 -0.0449469 -0.166563 -0.343011
2246 2 20.0406 24.8348 15.4727 0.186487 0.866962 -0.755441 2.71818
2247 2 18.372 22.1128 21.8224 0.202122 -0.548311 -0.438089 0.440482
2248 2 17.3882 23.8928 13.3947 0.189324 -0.229034 0.132389 -0.0165249
2249 2 21.3834 24.1256 14.1401 0.183727 -1.00409 1.54567 1.64291
2250 2 24.5232 13.8163 21.9987 0.167465 -0.387478 -0.154532 0.822389
2251 2 16.6249 19.7231 24.2411 0.188078 -1.73845 -0.316391 0.690152
2252 2 15.1181 15.5444 13.4896 0.197008 0.0618169 0.240521 0.0491829
2253 2 24.3341 23.0352 17.9975 0.212933 0.14964 -0.908511 2.96226
2254 2 16.7106 19.6687 14.6129 0.188156 0.0692281 0.0460517 -0.0426883
2255 2 23.2424 21.6566 22.6287 0.190616 -0.191011 -0.290726 -0.0125135
2256 2 23.1313 18.6366 17.8903 0.200946 0.254152 -0.0881087 0.0037823
2257 2 13.9453 17.3434 12.9753 0.188968 -0.196459 0.0410983 0.39786
2258 2 14.3858 17.7871 17.068 0.200651 0.751532 -0.314503 -0.18992
2259 2 22.4629 22.0765 14.9124 0.193333 -0.0930013 -0.869265 1.51203
2260 2 20.8503 18.8723 23.4765 0.18265 0.110774 1.10464 1.15439
2261 2 21.0291 16.7451 14.4513 0.172229 -0.212305 0.557293 0.73113
2262 2 15.5608 16.7228 20.8405 0.186047 -0.356842 0.0353419 0.19588
2263 2 17.5659 17.9785 19.049 0.201045 0.112164 0.131157 0.638043
2264 2 16.4158 22.0349 16.3361 0.201661 -0.114015 0.0748839 -0.373773
2265 2 18.609 16.0826 16.3498 0.182563 0.0693798 0.0628733 -0.0887558
2266 2 23.8495 15.3664 23.4249 0.187779 0.0162791 -0.34359 0.180668
2267 2 18.4161 20.4642 16.7006 0.207013 0.799363 0.582269 0.13187
2268 2 19.2663 18.3442 22.2676 0.199101 1.34421 -0.275852 0.170462
2269 2 14.2798 19.0358 18.6127 0.188915 -0.972224 -0.50829 -1.48037
2270 2 22.6321 20.8049 19.3407 0.185242 -0.359604 -0.0409529 -0.0916219
2271 2 21.1813 17.1217 19.551 0.197266 -0.574006 -0.251288 -0.295668
2272 2 17.2907 13.5283 23.8284 0.194956 0.238896 -0.32567 -0.0239181
2273 2 14.824 24.1543 16.1479 0.18812 -1.2628 0.0142932 0.0394427
2274 2 14.4554 18.533 21.372 0.193882 0.626532 -0.0923769 0.400074
2275 2 18.4867 20.923 13.0523 0.185005 1.56333 1.0612 1.0613
2276 2 24.5755 19.5043 23.2586 0.180137 -0.12426 -0.305938 0.178022
2277 2 19.2525 15.8977 19.7513 0.174954 -1.14657 -0.216642 1.47742
2278 2 19.9714 14.4353 21.5415 0.171586 0.190144 -0.621535 0.151136
2279 2 13.6946 14.7163 18.621 0.196276 -0.130518 0.102434 -1.11255
2280 2 21.7581 13.6215 18.7946 0.176055 0.445659 2.10602 -1.06228
2281 2 21.2973 15.3417 24.1408 0.190295 0.0828121 0.271381 -0.194694
2282 2 13.8308 21.8886 13.2887 0.202665 -0.190598 0.321491 0.0181414
2283 2 24.5898 15.6686 19.9493 0.195883 1.86301 -0.763956 0.0777215
2284 2 23.833 13.3974 13.7889 0.189354 1.07347 -0.918837 -1.39598
2285 2 19.8632 14.257 13.6783 0.191421 0.62734 -0.274327 -1.77328
2286 2 21.5983 21.8715 20.7209 0.178695 0.463819 -0.697679 2.32423
2287 2 15.4129 24.114 19.3275 0.189668 0.518812 -0.836132 0.13442
2288 2 19.9324 22.869 16.925 0.179684 0.918087 1.53052 0.439909
2289 2 19.1359 21.8468 19.9154 0.206098 2.43201 0.0204997 -0.85233
2290 2 19.7268 23.2084 23.3755 0.189088 0.0936061 0.17003 -0.0751838
2291 2 17.8868 13.5199 17.5663 0.199058 0.0612253 0.0752735 0.0579531
2292 2 14.3624 24.0159 14.0593 0.181678 -0.386182 0.652601 -0.677167
2293 2 17.4764 22.9891 19.7076 0.211504 -0.174879 -0.16923 -0.342372
2294 2 22.1882 17.9781 13.5606 0.184919 -1.12156 -0.752861 -0.314509
2295 2 14.1594 24.2891 22.2686 0.20284 -0.103838 -0.493899 0.347926
2296 2 18.4629 14.0189 15.1149 0.172633 0.852326 -0.853836 -0.250698
2297 2 21.775 19.6289 12.6605 0.201551 -0.370181 0.68691 -0.268575
2298 2 23.1457 19.017 20.4299 0.181148 -0.286154 -1.15199 1.17834
2299 2 14.3129 19.4678 24.8066 0.190671 0.197237 0.0383614 -0.0217649
2300 2 13.5099 21.5971 23.0406 0.186561 -1.96455 -0.579752 -1.05126
2301 2 22.6414 24.8341 20.5938 0.190618 0.648295 0.165018 -0.0878338
2302 2 13.3598 15.021 15.7286 0.17594 0.955355 -1.16892 2.49385
2303 2 21.7883 15.4583 16.6026 0.204062 0.288724 0.0406829 0.152139
2304 2 13.5486 22.5189 19.6559 0.214513 1.07264 1.43909 -0.478675
2305 1 11.8274 27.4482 14.6229 -0.413025 0.493946 0.361584 -0.342412
2306 1 5.36183 30.8893 14.2545 -0.357184 0.233952 0.50159 -1.02216
2307 1 12.1745 32.2294 15.1535 -0.3745 -0.473568 0.139434 -0.999744
2308 1 3.37946 29.1679 17.2839 -0.403172 -0.0649203 -0.377272 -0.238272
2309 1 4.53521 36.6177 24.3424 -0.351791 0.95927 0.628869 0.266564
2310 1 7.34393 25.067 14.6225 -0.37304 -0.637284 1.31016 -2.22513
2311 1 5.72931 34.7879 22.7553 -0.427791 0.441399 0.429931 0.0326925
2312 1 5.31812 36.0791 14.277 -0.35669 0.146321 -0.904258 0.0429199
2313 1 9.39454 36.031 13.5435 -0.38028 0.874635 -1.50584 -0.810933
2314 1 12.0599 25.5292 21.3648 -0.432996 1.50273 -0.133797 -2.42186
2315 1 5.01236 32.61 24.1834 -0.331861 0.754813 -0.383866 -0.624606
2316 1 3.63731 28.0814 13.5228 -0.331333 0.545615 1.37645 0.0513258
2317 1 11.8808 35.7903 17.1422 -0.393412 -0.0302633 0.775676 -3.22835
2318 1 3.88053 32.9424 14.9531 -0.464817 0.293537 0.360803 0.501868
2319 1 9.82241 34.0511 22.6246 -0.366574 0.516167 1.53947 0.447424
2320 1 10.9972 30.2033 17.6146 -0.3204 0.467157 -0.776305 1.84224
2321 1 0.970328 29.0066 13.2836 -0.355976 0.857288 0.850264 0.094572
2322 1 1.24043 30.8782 17.205 -0.379813 -0.684738 0.660708 -0.271618
2323 1 10.0975 33.9804 15.7648 -0.350165 0.686082 0.765097 -2.24644
2324 1 8.38715 30.6075 22.8295 -0.373964 0.3459 -0.271462 -0.970052
2325 1 8.06017 29.6098 13.7419 -0.365856 0.845141 -3.09433 -0.456722
2326 1 3.23023 28.2316 20.7051 -0.403717 1.88237 -0.209308 -0.151928
2327 1 5.0184 31.1015 19.7381 -0.410201 -0.498287 0.58402 -0.205475
2328 1 3.94283 35.4393 16.3917 -0.405433 0.303288 0.128723 0.112615
2329 1 6.24951 29.4498 16.6559 -0.387237 -0.185951 -0.145767 0.0740915
2330 1 12.1791 27.2388 23.5552 -0.385971 -0.574072 -0.985089 1.23511
2331 1 6.75769 33.4578 16.5129 -0.401717 -0.778527 -0.535217 -0.604582
2332 1 5.87266 30.7321 22.2333 -0.351891 -2.15551 0.349514 -0.12883
2333 1 2.17834 31.8013 19.4351 -0.403754 -0.71754 1.04564 2.0371
2334 1 10.8916 32.5803 19.2271 -0.351425 0.393174 0.72744 0.0355234
2335 1 8.03313 29.1713 19.0125 -0.328766 0.345724 -0.188797 -0.274567
2336 1 5.28849 26.8068 24.0019 -0.421189 -1.22095 0.809801 0.814146
2337 1 1.53004 37.0514 15.894 -0.408521 0.246889 -0.923101 0.425021
2338 1 2.04026 30.3829 22.1512 -0.30219 0.0564334 0.762398 -1.56112
2339 1 6.65565 33.9382 13.6547 -0.33365 -1.60945 -0.89616 -0.340394
2340 1 11.7498 31.0691 23.4529 -0.37618 -0.389374 -0.336849 0.262868
2341 1 6.10213 27.9606 20.406 -0.385321 0.55182 -1.31001 -1.93663
2342 1 8.22004 26.2666 21.8749 -0.396039 -0.63997 0.704604 -0.147355
2343 1 1.3119 26.912 19.5378 -0.380376 0.930914 -0.0730491 1.55555
2344 1 9.48261 26.997 18.3653 -0.388231 -0.674025 -1.89675 0.894367
2345 1 9.33006 28.2295 23.4179 -0.410944 0.886822 -0.512984 -0.292424
2346 1 1.31056 33.3834 13.2548 -0.397528 -0.184163 -0.925849 0.17385
2347 1 11.2498 28.3688 19.9545 -0.36228 -2.84408 0.854563 -0.687611
2348 1 11.7018 25.2174 13.0454 -0.381429 -1.8344 0.100073 1.15602
2349 1 7.6302 26.9297 12.7242 -0.385657 0.927598 0.660049 1.77994
2350 1 8.85638 34.409 19.845 -0.385243 -0.237543 0.658939 -1.63048
2351 1 2.0105 36.4273 19.3353 -0.410539 -0.0619346 0.275324 0.0819228
2352 1 8.01801 36.1636 17.1045 -0.387424 -1.15491 -1.71109 -0.604246
2353 1 5.81831 34.0704 20.1551 -0.325473 -1.00131 0.26607 0.744077
2354 1 8.11201 36.0779 23.665 -0.347565 0.441229 1.10517 -0.42931
2355 1 5.93943 25.7307 18.3556 -0.429913 0.145937 0.134927 -0.185541
2356 1 1.88048 36.5474 13.0849 -0.447478 -0.23759 -0.600887 0.584884
2357 1 4.65725 36.1695 19.1772 -0.345241 -0.507473 0.170819 -1.31006
2358 1 10.3228 31.1482 13.3348 -0.321969 0.927009 -0.931235 1.20139
2359 1 2.01179 35.9587 22.7743 -0.381277 -1.18182 2.00165 0.923063
2360 1 5.36145 26.9507 15.5868 -0.367657 -1.35629 1.22917 -0.984574
2361 1 8.55818 32.4816 24.6149 -0.414896 -0.545083 -0.62761 0.782093
2362 1 10.5121 30.6974 21.1041 -0.400327 0.730764 1.4749 0.416225
2363 1 2.36876 31.1191 24.5451 -0.417814 -0.341534 0.554424 0.564934
2364 1 0.301727 33.6578 22.4948 -0.374801 1.93929 0.717123 1.05377
2365 1 9.46899 37.0165 20.0156 -0.328195 -1.33988 0.35958 1.18386
2366 1 1.41402 27.2099 16.6157 -0.407918 -0.792746 1.80221 -1.58935
2367 1 9.68607 28.5784 16.006 -0.387226 -0.22196 0.102284 -0.341202
2368 1 0.750016 34.1072 19.835 -0.387831 -0.444012 -1.96595 0.481946
2369 2 11.0954 27.753 15.1795 0.192699 -0.0773411 0.370284 0.0028138
2370 2 5.51257 30.4002 15.0426 0.194351 0.249466 -0.814873 1.34361
2371 2 0.2244 31.6895 15.7353 0.202555 0.9466 -0.661789 1.33324
2372 2 4.25821 29.08 16.9083 0.182786 0.276247 0.405056 0.171894
2373 2 3.622 36.4445 24.1939 0.195395 -1.64899 -0.217703 -0.0846109
2374 2 6.52912 36.9563 14.4291 0.175153 -0.0151581 -0.0816145 0.0857284
2375 2 5.376 34.037 23.2929 0.193952 0.207314 -0.0839756 -0.750537
2376 2 5.73942 35.1772 14.1009 0.183034 -0.2013 0.834261 0.0937061
2377 2 8.70487 35.9655 12.8677 0.178091 0.339754 -0.111636 -0.825705
2378 2 0.275566 25.9151 20.7098 0.172972 -1.23568 -1.02199 0.505512
2379 2 5.45977 31.9633 23.59 0.179656 0.103976 0.390356 0.184061
2380 2 3.84277 29.0634 13.5131 0.194312 -0.530416 -1.7119 -0.0190599
2381 2 11.5568 35.0692 16.5812 0.192226 -0.144917 0.223649 0.171853
2382 2 3.00425 33.054 14.6026 0.188639 -0.421335 -0.0228922 -0.330924
2383 2 9.54909 34.9288 23.0101 0.184133 -0.0642583 -0.999038 -0.519415
2384 2 11.1834 29.7266 18.4947 0.169657 -0.480169 0.496214 -1.63925
2385 2 0.691831 28.6438 24.8707 0.174751 -0.14701 -0.316282 0.290128
2386 2 0.416375 30.4016 17.3236 0.188939 -0.454923 -0.17267 0.100331
2387 2 9.50092 34.3675 16.3919 0.198284 -0.496876 0.302152 0.397581
2388 2 9.06235 30.7726 22.1316 0.184946 -0.376005 -0.0367879 0.19043
2389 2 7.92091 28.7201 13.2384 0.157019 -0.388632 2.04105 0.381166
2390 2 4.22311 28.1001 20.6346 0.191842 -1.25199 0.209091 0.0412014
2391 2 5.26315 30.7815 20.6309 0.186521 0.292851 -0.0750787 -0.225208
2392 2 4.43755 35.7939 15.5875 0.187245 -0.282471 -0.55851 0.543274
2393 2 6.93798 29.4639 17.3362 0.197586 -0.0903352 0.129965 -0.113939
2394 2 11.8872 26.4931 24.1999 0.177518 0.571638 1.29088 -1.07473
2395 2 6.78775 33.4119 15.5373 0.175653 0.204598 0.293089 0.279989
2396 2 5.6091 29.88 22.5774 0.220568 0.146396 -0.303083 0.103197
2397 2 3.08213 31.5584 19.4288 0.193201 1.84633 -0.24222 0.150315
2398 2 11.7203 33.1125 19.3025 0.190595 -0.282318 -0.441879 0.00469687
2399 2 8.39537 28.3356 18.6148 0.181626 0.277699 0.324234 0.514932
2400 2 4.63991 27.2683 24.6095 0.182156 0.96183 -0.336807 -0.738701
2401 2 0.738618 36.5793 16.2969 0.1931 1.22627 0.505491 -0.146748
2402 2 1.11277 30.2018 22.1502 0.200954 -1.18234 -0.870117 0.609588
2403 2 7.53121 34.0077 13.2746 0.194261 0.0862494 -0.513498 -0.329392
2404 2 11.3463 31.0899 24.3561 0.190322 0.105241 -0.0693114 -0.608327
2405 2 5.85627 27.0811 19.9755 0.181114 0.585345 1.50419 0.506339
2406 2 8.79917 26.8997 22.3437 0.182316 0.0328086 -0.106503 -0.0895422
2407 2 2.16717 27.3179 19.9133 0.202293 -1.04826 -0.11371 -0.310987
2408 2 10.0886 27.4213 18.9943 0.183061 0.316553 -0.0487622 -0.00548696
2409 2 9.07179 29.1604 23.3616 0.187451 -0.415901 0.247782 -0.100613
2410 2 0.640073 33.0217 13.886 0.200833 0.413562 0.667611 -0.192018
2411 2 11.1318 29.0916 20.5764 0.201842 -0.316398 0.600376 0.471284
2412 2 11.0198 36.9115 13.0093 0.194342 1.03013 1.54126 0.160108
2413 2 6.8243 26.742 24.6449 0.186097 -0.34539 0.189338 0.037928
2414 2 9.13116 35.3454 19.6981 0.184734 -0.231456 -0.110743 -0.415508
2415 2 1.754 37.3419 19.2458 0.1824 -0.884689 0.530004 -0.0022577
2416 2 7.37477 36.7514 17.5187 0.179978 0.0387579 0.100961 0.234506
2417 2 5.59253 33.1784 19.8845 0.217476 0.0761439 -0.553823 -0.15306
2418 2 8.14574 37.0009 23.3043 0.196027 -0.219364 -0.992219 0.368075
2419 2 5.47174 24.9506 18.7559 0.188841 0.138445 0.379832 -0.0501389
2420 2 0.986526 36.8776 12.8522 0.186859 0.593841 -0.0448535 0.553444
2421 2 4.54734 35.8482 18.2416 0.185466 -0.0705031 0.0274825 0.656806
2422 2 10.9428 31.1716 14.097 0.201014 -0.041102 0.623673 -0.518805
2423 2 2.50791 35.4392 22.2013 0.21831 1.37225 -1.11504 -1.6864
2424 2 4.74385 27.3026 14.8642 0.184545 0.801787 -0.601615 1.20081
2425 2 8.83549 33.1407 23.9987 0.187722 0.839124 0.729768 -0.745391
2426 2 10.8944 30.9517 22.0298 0.175534 -0.242566 -0.517857 -1.51851
2427 2 2.157 30.8751 23.6096 0.182166 0.305844 0.283092 0.317608
2428 2 0.491991 33.9527 21.571 0.17031 -0.219322 -0.231792 0.331382
2429 2 8.68556 37.2335 20.6079 0.196647 1.23731 0.043887 -0.990861
2430 2 1.76614 26.3273 16.5042 0.192141 -0.309242 -0.801811 -0.478355
2431 2 10.0554 29.3259 16.5347 0.194074 -0.11018 -0.623913 0.105702
2432 2 1.43049 33.3814 19.7722 0.199597 -0.305702 0.746203 -0.314602
2433 2 12.2389 28.2039 14.1221 0.206234 -0.52817 -0.625051 0.613133
2434 2 6.2664 31.1063 13.9862 0.195748 -0.254806 -0.218871 -0.257302
2435 2 11.4842 32.7385 15.603 0.208283 -0.0289288 0.0084811 0.234058
2436 2 2.95053 28.328 17.0537 0.18077 -0.450668 0.0732665 0.0690831
2437 2 5.03768 36.0528 23.7462 0.202638 0.112147 -0.342483 -0.536537
2438 2 7.5911 37.2838 15.4831 0.185868 0.718703 -0.655686 2.34239
2439 2 5.93448 34.5852 21.8058 0.203277 -0.709984 -0.475023 0.996001
2440 2 4.92926 36.347 13.4092 0.192082 -0.207473 0.0222583 -0.13906
2441 2 8.92869 36.5742 14.1345 0.182377 -0.784986 1.47124 1.65483
2442 2 12.0779 26.2387 21.9787 0.17362 -0.392591 0.910811 1.74721
2443 2 4.15844 32.1789 24.2461 0.185696 -0.826531 0.0368927 0.569555
2444 2 2.66938 27.9679 13.487 0.197885 0.343952 0.407053 0.0717722
2445 2 11.8972 35.4775 17.9944 0.212879 0.15474 -0.933817 2.95072
2446 2 4.27602 32.1273 14.6032 0.188818 0.0799345 -0.0393225 -0.0493959
2447 2 10.8048 34.1017 22.6242 0.189324 -0.45068 -0.330797 -0.0192993
2448 2 10.695 31.0782 17.8892 0.20115 0.106703 0.293585 0.102406
2449 2 1.51203 29.769 12.9675 0.189259 -0.156599 0.166368 0.459085
2450 2 1.93126 30.2394 17.053 0.20173 1.02909 -0.665968 -0.237071
2451 2 10.0187 34.5268 14.9109 0.194282 -0.115806 -0.920779 1.66161
2452 2 8.41764 31.3288 23.4842 0.179318 0.0864011 0.421689 0.495715
2453 2 8.57867 29.1641 14.4515 0.170068 -0.437163 0.840601 0.428276
2454 2 3.11913 29.1764 20.8536 0.186006 -0.289558 -0.252964 0.145062
2455 2 5.12779 30.4406 19.0496 0.201262 0.127977 -0.112117 0.313976
2456 2 3.96409 34.4664 16.3269 0.200184 -0.0965173 0.558863 -0.360471
2457 2 6.15803 28.5354 16.3424 0.183219 0.118023 -0.0961669 -0.0458495
2458 2 11.4084 27.8103 23.4297 0.187748 -0.177644 -0.223735 0.136799
2459 2 5.96525 32.9145 16.6893 0.206738 0.685382 0.504966 0.220417
2460 2 6.81889 30.7883 22.2775 0.200096 1.74189 -0.359671 0.227097
2461 2 1.82213 31.4777 18.6219 0.18954 -0.91505 -0.547694 -1.53127
2462 2 10.1924 33.2609 19.3348 0.183657 -0.24097 -0.262772 -0.0755638
2463 2 8.73824 29.5674 19.5586 0.197655 -0.608962 -0.329662 -0.375744
2464 2 4.83841 25.9718 23.8329 0.193749 0.227022 -0.365879 -0.0303355
2465 2 2.37158 36.5959 16.1441 0.18778 -1.05279 -0.0198371 0.0667789
2466 2 2.01384 30.9778 21.3746 0.196796 0.722049 0.159279 0.132845
2467 2 6.04609 33.3746 13.0677 0.188261 1.30272 0.788336 0.737878
2468 2 12.1142 31.9316 23.256 0.183878 0.30871 0.685355 0.0281364
2469 2 6.80256 28.3536 19.7507 0.172325 -1.29598 -0.343801 1.57533
2470 2 7.51261 26.8707 21.5467 0.171208 0.388921 -0.738744 0.225868
2471 2 1.25793 27.1539 18.6283 0.198365 -0.101303 0.239887 -1.4545
2472 2 9.31855 26.0708 18.7796 0.179237 0.38908 1.88144 -0.916098
2473 2 8.84152 27.8006 24.1227 0.191938 -0.284571 -0.214611 0.464318
2474 2 1.39419 34.3369 13.2902 0.203149 -0.182045 0.401067 0.0186969
2475 2 12.1276 28.1256 19.944 0.198866 3.15666 -1.19312 -0.00864895
2476 2 11.3725 25.8488 13.7817 0.187873 1.17427 -1.09475 -1.50656
2477 2 7.43397 26.707 13.6754 0.194037 0.520096 -0.327542 -1.63906
2478 2 9.14216 34.3241 20.7273 0.17771 0.419293 -0.723333 2.2309
2479 2 2.96778 36.5438 19.3161 0.18919 0.554414 -0.817669 0.144972
2480 2 7.50763 35.3116 16.9095 0.182377 0.781825 1.50054 0.48028
2481 2 6.69654 34.2964 19.9073 0.204447 1.64754 -0.200952 -0.627492
2482 2 7.2896 35.6626 23.3834 0.190653 -0.420419 -0.104602 -0.270607
2483 2 5.44372 25.9777 17.5653 0.196854 0.129955 0.14585 0.0592148
2484 2 1.91677 36.4536 14.0656 0.1802 -0.400072 0.685923 -0.894759
2485 2 5.04523 35.4523 19.6939 0.213144 0.0310607 -0.676369 0.0535589
2486 2 9.72593 30.4088 13.5593 0.182714 -0.45105 0.137904 -0.591375
2487 2 1.73555 36.7512 22.2639 0.20355 0.0264058 -0.881363 0.510038
2488 2 6.02529 26.4456 15.1237 0.171446 0.415083 -0.530283 -0.0801601
2489 2 9.34501 32.1028 12.6676 0.198799 -0.460065 0.534214 -0.25759
2490 2 10.7093 31.4474 20.4182 0.181477 -0.304907 -1.03538 1.25134
2491 2 1.8574 31.9258 24.804 0.187575 0.5448 -0.482731 -0.145533
2492 2 1.07978 34.0457 23.0416 0.185397 -2.30832 -0.7404 -1.23592
2493 2 10.2059 37.2812 20.5895 0.189301 0.422126 0.0729563 -0.228083
2494 2 0.918769 27.4518 15.7322 0.175563 0.865437 -1.03252 2.37787
2495 2 9.34146 27.9036 16.6122 0.203559 0.363381 0.183822 0.0722383
2496 2 1.10374 34.9737 19.6579 0.214749 0.928029 0.998635 -0.37081
2497 1 24.2753 27.4513 14.6276 -0.421011 0.327503 0.525276 -0.18871
2498 1 17.8039 30.8879 14.2522 -0.356559 0.00957652 0.178617 -0.519375
2499 1 24.6196 32.2325 15.1534 -0.375698 -0.10128 0.0299824 -2.08993
2500 1 15.8234 29.1636 17.2831 -0.399676 1.42399 0.126851 -0.591832
2501 1 16.9846 36.6212 24.3415 -0.352043 0.122684 0.484293 0.137419
2502 1 19.7842 25.0689 14.6235 -0.380033 -0.55661 1.24128 -2.03568
2503 1 18.1779 34.786 22.7565 -0.424072 0.110131 -0.193748 0.585691
2504 1 17.765 36.0768 14.2771 -0.346515 -0.211565 -0.254034 -0.134676
2505 1 21.8327 36.0316 13.5478 -0.384834 1.0037 -1.33276 -0.449364
2506 1 24.5015 25.5261 21.3632 -0.431168 1.50387 0.130423 -2.13677
2507 1 17.4512 32.6052 24.1863 -0.333037 0.975978 -0.320651 -0.715414
2508 1 16.0829 28.0787 13.5268 -0.335765 0.2127 0.846466 0.0262346
2509 1 24.3226 35.7893 17.1473 -0.391599 0.282719 1.05861 -1.64876
2510 1 16.3246 32.9417 14.9578 -0.466102 -0.0359225 0.418806 0.389154
2511 1 22.2634 34.0494 22.6248 -0.369979 0.581103 1.70651 0.535009
2512 1 23.446 30.1984 17.6148 -0.31579 -0.00205113 0.337112 1.39389
2513 1 13.416 29.0084 13.285 -0.356956 0.866281 0.946336 0.103877
2514 1 13.6854 30.8808 17.2084 -0.375751 0.0855807 0.288306 -0.459775
2515 1 22.5469 33.9798 15.7644 -0.354168 0.527089 0.86386 -2.14309
2516 1 20.8356 30.6069 22.8349 -0.373193 0.684328 -0.504377 -1.63003
2517 1 20.5071 29.6074 13.7437 -0.366707 0.715542 -2.75955 -0.520188
2518 1 15.6751 28.2298 20.709 -0.403416 2.43129 -1.22051 -0.344328
2519 1 17.4632 31.0995 19.7382 -0.408924 -0.439169 0.155759 -0.729251
2520 1 16.3829 35.438 16.3977 -0.400294 0.39391 0.457724 0.0538437
2521 1 18.6907 29.4523 16.6569 -0.377091 -0.363488 -1.02321 -0.281527
2522 1 24.6251 27.242 23.5538 -0.381843 -0.689188 -0.883509 1.165
2523 1 19.2053 33.459 16.5111 -0.403156 -1.52196 -0.988384 -0.437789
2524 1 18.3107 30.7295 22.2339 -0.346908 -2.42795 0.265784 -0.120031
2525 1 14.627 31.8019 19.4374 -0.400945 0.117212 0.625097 1.6792
2526 1 23.3368 32.5822 19.2231 -0.349608 0.673848 0.238893 -0.0125792
2527 1 20.4757 29.17 19.016 -0.329167 0.771701 0.420571 0.221212
2528 1 17.7347 26.8109 24.0036 -0.424126 -1.23014 1.10261 0.991217
2529 1 13.9778 37.0534 15.8996 -0.410404 0.576012 -1.0308 0.464973
2530 1 14.4852 30.382 22.1546 -0.313168 -0.535865 1.07355 -2.14851
2531 1 19.1022 33.9398 13.6544 -0.337153 -1.58261 -1.21429 -0.814215
2532 1 24.1924 31.0682 23.4561 -0.378947 0.549595 0.586086 -1.02878
2533 1 18.5584 27.9582 20.4028 -0.383664 0.274588 -0.987228 -1.3892
2534 1 20.665 26.2682 21.8744 -0.398041 -0.59539 0.886638 -0.0907031
2535 1 13.7518 26.9107 19.5366 -0.382168 0.943413 0.223051 0.680174
2536 1 21.9271 26.9997 18.3653 -0.386756 -0.932152 -2.05532 0.781605
2537 1 21.7758 28.2299 23.4172 -0.41647 0.063612 -0.223019 0.526921
2538 1 13.7551 33.3813 13.2569 -0.394925 -0.291314 -1.13929 0.292966
2539 1 23.6961 28.3703 19.9558 -0.367256 -2.99079 0.951524 -0.645377
2540 1 24.1468 25.2203 13.0474 -0.372691 -1.6684 -0.0849417 0.896486
2541 1 20.0764 26.9271 12.7208 -0.391887 -0.228484 0.299574 1.42269
2542 1 21.3025 34.4094 19.8466 -0.387698 -0.423029 0.273678 -1.8335
2543 1 14.4539 36.4289 19.336 -0.411198 0.550783 -0.762176 0.183015
2544 1 20.4646 36.1607 17.1067 -0.382473 -1.78833 -1.07357 -0.182816
2545 1 18.2638 34.0687 20.1564 -0.322776 -1.51394 -0.532506 0.641817
2546 1 20.5561 36.0787 23.6653 -0.346894 0.349782 1.23984 -0.548897
2547 1 18.3848 25.7321 18.3555 -0.427905 0.395005 0.118288 0.0528292
2548 1 14.3242 36.5489 13.0811 -0.448245 0.535555 -0.880312 1.11553
2549 1 17.1046 36.1673 19.1719 -0.35241 -0.389126 -0.172825 -1.17215
2550 1 22.7705 31.1491 13.3336 -0.328382 0.902124 -0.873147 1.19732
2551 1 14.4524 35.959 22.7758 -0.378966 -0.473664 0.938022 0.493947
2552 1 17.8045 26.9518 15.5798 -0.367465 -2.08366 1.8197 0.18379
2553 1 21.0042 32.483 24.6122 -0.415793 -0.624822 -0.426725 0.638962
2554 1 22.9552 30.6975 21.1052 -0.395457 0.572156 1.54187 -0.152843
2555 1 14.8128 31.119 24.5433 -0.413043 -0.0113553 0.780805 1.68846
2556 1 12.7438 33.6589 22.4942 -0.37756 2.02178 0.749544 1.28747
2557 1 21.9154 37.0214 20.0168 -0.332427 -1.4058 -0.078955 0.0432327
2558 1 13.8547 27.2089 16.6156 -0.407236 -1.30972 2.91494 -1.64912
2559 1 22.135 28.5814 16.0048 -0.387042 -0.268742 0.162361 0.214017
2560 1 13.1976 34.1084 19.8374 -0.391214 -0.537927 -1.99714 0.490175
2561 2 23.5379 27.7555 15.1895 0.191916 0.161404 0.304564 -0.186976
2562 2 17.9585 30.3929 15.0443 0.192974 0.105952 -0.640054 1.02913
2563 2 12.6879 31.679 15.7392 0.199661 0.465969 -0.12995 0.795958
2564 2 16.7328 29.0834 16.8999 0.179253 -0.990223 0.479763 0.691068
2565 2 16.0534 36.4472 24.2017 0.193666 -0.785286 -0.0694286 0.0277314
2566 2 18.959 36.9501 14.4364 0.172834 0.390706 0.176028 0.183032
2567 2 17.8061 34.0245 23.2992 0.190572 0.435497 0.442315 -0.97387
2568 2 18.1833 35.2027 14.0681 0.183692 0.108199 0.134736 0.161704
2569 2 21.1628 35.9547 12.8592 0.17911 0.151451 -0.0316631 -0.856649
2570 2 12.7168 25.9278 20.7076 0.173573 -1.23844 -1.03565 0.56185
2571 2 17.9082 31.9649 23.5884 0.180045 -0.0695897 0.425852 0.282139
2572 2 16.2857 29.0454 13.5023 0.195058 -0.361535 -1.11423 0.00352607
2573 2 24.0076 35.0803 16.5969 0.193973 -0.442591 -0.458015 -0.363279
2574 2 15.4504 33.0717 14.5897 0.186966 -0.0720452 -0.104495 -0.196676
2575 2 21.969 34.9262 23.0191 0.183064 0.162113 -1.20484 -0.653469
2576 2 23.6235 29.7191 18.4734 0.173633 -0.362879 0.270081 -1.0099
2577 2 13.1205 28.6301 24.8874 0.176394 -0.146548 -0.32511 0.0151094
2578 2 12.8714 30.3949 17.3228 0.189425 -0.637999 -0.297486 0.138373
2579 2 21.9526 34.3857 16.3849 0.196721 -0.428082 0.227499 0.374817
2580 2 21.5204 30.7724 22.1227 0.18447 -0.785558 -0.0802827 0.662506
2581 2 20.3753 28.7204 13.2481 0.15822 -0.425119 1.84736 0.259699
2582 2 16.6794 28.108 20.6431 0.190841 -1.61876 0.185764 0.0522989
2583 2 17.7071 30.8019 20.6425 0.187677 0.277465 -0.180378 -0.362123
2584 2 16.8931 35.7961 15.6016 0.188703 -0.360931 -0.629971 0.587951
2585 2 19.384 29.4525 17.3262 0.196414 0.0705842 0.241001 0.0887714
2586 2 24.322 26.5028 24.1924 0.176218 0.662479 1.12408 -0.966513
2587 2 19.2412 33.4223 15.5286 0.175377 -0.0026318 0.183554 0.594995
2588 2 18.0525 29.8677 22.5638 0.221193 0.193741 -0.202225 0.0766019
2589 2 15.5403 31.5308 19.4283 0.188406 0.999718 0.0484922 0.268485
2590 2 24.1734 33.1018 19.3024 0.192806 -0.373109 -0.344958 0.00924534
2591 2 20.8523 28.3469 18.6314 0.180099 0.332613 -0.0455128 0.283216
2592 2 17.0811 27.2735 24.6182 0.182272 1.1124 -0.530694 -0.926639
2593 2 13.1837 36.5933 16.3066 0.19286 1.17148 0.415443 -0.152472
2594 2 13.5498 30.1806 22.1671 0.197957 -0.496446 -0.662703 0.531596
2595 2 19.9831 34.0015 13.2681 0.191495 -0.223149 -0.535236 -0.179014
2596 2 23.7997 31.09 24.3349 0.192093 -0.330807 -0.0171512 0.42847
2597 2 18.2959 27.1005 19.9751 0.184581 0.484347 0.9631 0.297766
2598 2 21.2498 26.8982 22.3466 0.181162 -0.00782282 -0.186612 -0.105798
2599 2 14.6138 27.315 19.9039 0.201215 -1.13736 -0.146748 -0.324158
2600 2 22.523 27.4177 18.9977 0.183064 0.546062 0.0910856 0.175718
2601 2 21.5084 29.1814 23.355 0.183087 -0.204346 -0.617382 -0.0202281
2602 2 13.0915 33.0176 13.9038 0.200774 0.515808 0.743871 -0.324707
2603 2 23.5606 29.083 20.5893 0.201675 -0.223597 0.485399 0.363228
2604 2 23.4701 36.9146 13.0173 0.196188 0.870726 1.35992 0.10908
2605 2 19.2766 26.7241 24.6452 0.187671 -0.391057 0.228159 0.0456609
2606 2 21.5812 35.3319 19.6938 0.186725 -0.134343 0.253343 -0.455078
2607 2 14.1978 37.3216 19.2448 0.18643 -1.288 1.64087 -0.123331
2608 2 19.8176 36.7719 17.5293 0.175425 0.635866 -0.455893 -0.163814
2609 2 18.0391 33.1605 19.8848 0.216703 0.222923 0.121577 0.0306107
2610 2 20.5747 37.0074 23.3002 0.195375 -0.195461 -1.22692 0.445335
2611 2 17.936 24.9505 18.7659 0.190109 0.035477 0.312355 -0.0464945
2612 2 13.4488 36.8854 12.8547 0.190029 -0.098329 0.191653 0.405009
2613 2 16.9844 35.8506 18.2316 0.184419 -0.032631 0.0183085 0.826774
2614 2 23.385 31.1793 14.0981 0.19952 0.0132407 0.606202 -0.519529
2615 2 14.9744 35.4333 22.2023 0.217384 0.757582 -0.418758 -0.983112
2616 2 17.1896 27.2944 14.8737 0.188817 0.447848 -0.37796 0.795003
2617 2 21.276 33.1547 24.0003 0.187608 0.803408 0.50641 -0.592897
2618 2 23.3342 30.9505 22.0154 0.1777 -0.0801605 -0.383455 -1.15645
2619 2 14.587 30.8915 23.6377 0.18447 0.0621773 -0.0343622 -0.816315
2620 2 12.9391 33.9502 21.5778 0.170357 -0.231877 -0.168129 0.0423703
2621 2 21.1499 37.2441 20.5871 0.198742 0.315381 0.185136 -0.456375
2622 2 14.2012 26.3454 16.5295 0.195585 0.174342 -1.92592 -0.601295
2623 2 22.4947 29.3425 16.5456 0.191313 -0.231166 -1.0207 -0.163616
2624 2 13.8688 33.377 19.7723 0.200587 -0.239054 0.713296 -0.316746
2625 2 24.6986 28.2097 14.1355 0.206417 -0.62233 -0.698958 0.638894
2626 2 18.7064 31.1065 14.0075 0.19555 0.114297 -0.0711232 -0.449941
2627 2 23.9369 32.7286 15.5774 0.211437 -0.885396 0.645865 0.808783
2628 2 15.4013 28.3359 17.0504 0.182167 -0.662662 -0.464836 -0.0886154
2629 2 17.4841 36.0655 23.7341 0.203061 0.0710269 -0.351498 -0.523601
2630 2 20.0539 37.2819 15.4885 0.18388 0.523734 -0.516046 1.75626
2631 2 18.372 34.5536 21.8189 0.199976 -0.601852 -0.366431 0.675168
2632 2 17.3668 36.3463 13.4079 0.192087 -0.159308 0.093594 0.0255347
2633 2 21.362 36.5724 14.1465 0.182049 -0.709082 1.23045 1.29731
2634 2 24.5292 26.2461 21.9744 0.172137 -0.420497 0.643802 1.53542
2635 2 16.6006 32.1745 24.2603 0.186128 -0.886808 -0.0694794 0.507648
2636 2 15.1103 27.9775 13.489 0.197021 0.48911 0.360779 0.0610952
2637 2 24.344 35.4681 18.0135 0.211015 0.148899 -0.544145 1.88935
2638 2 16.7161 32.1213 14.6157 0.189032 0.0570256 -0.0197331 -0.0731062
2639 2 23.2523 34.0969 22.6215 0.188772 -0.752901 -0.244204 0.0324329
2640 2 23.116 31.0866 17.8853 0.201379 0.462939 -0.559413 -0.0627592
2641 2 13.9464 29.7939 12.9896 0.189501 -0.294276 -0.108126 0.35212
2642 2 14.3972 30.2426 17.0514 0.201031 0.47916 -0.201397 -0.119017
2643 2 22.465 34.5264 14.9124 0.192502 -0.0676463 -0.93188 1.58037
2644 2 20.8575 31.3154 23.4931 0.181184 0.165735 0.701299 0.639305
2645 2 21.0186 29.1771 14.4586 0.171727 -0.279459 0.692851 0.609571
2646 2 15.5657 29.1551 20.8575 0.188094 -0.478611 0.792284 0.323666
2647 2 17.5627 30.4246 19.0382 0.200637 0.0906812 0.406273 0.977337
2648 2 16.4192 34.4706 16.3416 0.201041 -0.106938 0.296386 -0.399002
2649 2 18.605 28.5152 16.351 0.179247 0.0967813 0.650816 0.0923458
2650 2 23.8456 27.8046 23.4375 0.186378 -0.143167 -0.145317 0.0699159
2651 2 18.388 32.9175 16.7226 0.205815 1.62383 1.07994 -0.278775
2652 2 19.2506 30.7973 22.2774 0.201571 2.01446 -0.364634 0.233368
2653 2 14.2855 31.4692 18.6147 0.187374 -0.933782 -0.397888 -1.2549
2654 2 22.6338 33.2462 19.3173 0.187097 -0.441522 0.105935 0.00867617
2655 2 21.1924 29.5756 19.5641 0.194904 -1.06966 -0.522286 -0.671398
2656 2 17.2976 25.9766 23.819 0.194981 0.0760078 -0.475881 -0.00639667
2657 2 14.8216 36.5812 16.145 0.187131 -1.33054 0.170249 0.0151457
2658 2 14.4458 30.9853 21.361 0.191992 0.648036 -0.368735 0.75834
2659 2 18.4871 33.3536 13.0626 0.184238 1.59169 1.13487 1.02873
2660 2 24.5821 31.9443 23.254 0.181742 -0.159401 -0.269138 0.253317
2661 2 19.2454 28.3437 19.7566 0.176031 -0.968966 -0.146393 1.26546
2662 2 19.9699 26.8895 21.5482 0.169801 0.380766 -0.834205 0.221243
2663 2 13.687 27.1625 18.6124 0.19646 -0.0306501 -0.0019137 -0.56054
2664 2 21.7417 26.0816 18.792 0.178846 0.453376 1.87401 -0.984638
2665 2 21.2736 27.7917 24.1442 0.187864 0.312968 0.339703 -0.450316
2666 2 13.8503 34.3313 13.2935 0.204043 -0.198534 0.529577 0.0318913
2667 2 24.5717 28.1234 19.952 0.199098 3.21364 -1.18698 0.0394334
2668 2 23.812 25.8382 13.7731 0.189707 1.10003 -0.739135 -1.1727
2669 2 19.8837 26.7028 13.6848 0.191812 0.561679 -0.26628 -2.0762
2670 2 21.5724 34.3217 20.7293 0.179438 0.497115 -0.72485 2.46146
2671 2 15.4146 36.5569 19.3169 0.189243 0.371583 -0.903153 0.154112
2672 2 19.9343 35.3203 16.9171 0.180555 0.830516 1.42304 0.448749
2673 2 19.1385 34.2905 19.9146 0.204242 1.97309 -0.0938338 -0.713053
2674 2 19.7445 35.6427 23.375 0.190415 -0.352408 -0.0192172 -0.238242
2675 2 17.8833 25.9693 17.5739 0.198372 -0.0502791 0.194812 -0.193413
2676 2 14.3753 36.458 14.0703 0.180665 -0.489799 0.725559 -1.26634
2677 2 17.4903 35.441 19.6983 0.212964 -0.148168 -0.34516 -0.256605
2678 2 22.1727 30.4168 13.5692 0.182396 -0.486621 0.0579357 -0.597435
2679 2 14.1621 36.7343 22.2658 0.203798 -0.0634986 -0.520195 0.232745
2680 2 18.4597 26.476 15.1283 0.178159 1.50634 -1.34207 -0.821338
2681 2 21.7708 32.0955 12.6479 0.199949 0.131446 0.308131 0.13476
2682 2 23.1527 31.448 20.4035 0.182026 -0.33906 -1.17456 1.44929
2683 2 14.3083 31.921 24.8168 0.189857 0.4588 -0.383582 -0.126379
2684 2 13.5282 34.0555 23.0298 0.183563 -2.38226 -0.802799 -1.18217
2685 2 22.6236 37.2833 20.59 0.192376 1.39371 0.348491 0.376779
2686 2 13.3701 27.4372 15.7163 0.176672 0.888903 -1.01711 2.55298
2687 2 21.776 27.9045 16.6169 0.201832 0.545136 0.493827 -0.214438
2688 2 13.5568 34.969 19.6531 0.214689 0.955071 1.06779 -0.387725
2689 1 11.8282 39.8927 14.6238 -0.415604 0.254507 0.716176 -0.192988
2690 1 5.36055 43.3327 14.2528 -0.356051 0.519954 0.182298 -0.460089
2691 1 12.1703 44.6731 15.1547 -0.382557 -0.317685 0.124313 -1.75004
2692 1 3.3805 41.6137 17.2869 -0.399005 0.795773 -0.218425 -0.488357
2693 1 4.54184 49.0634 24.3439 -0.354271 1.13357 1.00054 0.575672
2694 1 7.33644 37.5129 14.6254 -0.37869 -0.382079 1.13431 -1.74481
2695 1 5.72761 47.2333 22.7544 -0.43285 0.203671 -0.274689 0.262533
2696 1 5.32073 48.5238 14.2765 -0.350362 -0.467876 0.196948 -0.103133
2697 1 9.39127 48.4728 13.545 -0.389096 0.63917 -1.61319 -1.22107
2698 1 12.0589 37.974 21.3617 -0.428993 1.32695 0.433499 -1.70008
2699 1 5.00925 45.0545 24.1828 -0.327608 1.36478 -0.250925 -0.763133
2700 1 3.63972 40.522 13.5275 -0.332913 0.748383 1.59441 0.00529034
2701 1 11.8802 48.2315 17.144 -0.392508 0.181838 0.782302 -1.94355
2702 1 3.8777 45.3818 14.9557 -0.463528 -0.445421 0.480885 0.205595
2703 1 9.81888 46.4939 22.6276 -0.365517 0.222492 1.56168 0.474305
2704 1 10.9998 42.6436 17.6142 -0.317617 0.0925056 -0.0333607 2.03582
2705 1 0.972303 41.4527 13.2841 -0.350219 0.215866 0.105463 -1.57752
2706 1 1.24383 43.3222 17.207 -0.377645 -0.0458602 1.10806 -0.413804
2707 1 10.1027 46.425 15.7645 -0.3527 0.610169 0.594669 -1.68708
2708 1 8.38861 43.0515 22.8349 -0.375245 0.939663 -0.432013 -1.89522
2709 1 8.06214 42.0515 13.7476 -0.369246 0.856699 -3.16451 -0.54531
2710 1 3.2318 40.6741 20.7054 -0.402602 1.84013 -0.716964 -0.228262
2711 1 5.01924 43.5462 19.7368 -0.408701 -0.53193 0.312709 -0.889551
2712 1 3.93603 47.8814 16.394 -0.409134 0.586261 0.555184 -0.248007
2713 1 6.24919 41.8938 16.6553 -0.380181 -0.244796 -0.283841 -0.00250306
2714 1 12.181 39.684 23.5566 -0.379734 -1.24258 -0.844055 1.30026
2715 1 6.75744 45.9042 16.5149 -0.403448 -1.04074 -0.761287 -0.895189
2716 1 5.87009 43.1777 22.2308 -0.350049 -2.16995 0.59332 -0.176488
2717 1 2.17719 44.2396 19.4332 -0.398371 -0.433013 0.694406 1.50192
2718 1 10.8914 45.0263 19.2239 -0.355408 0.784805 0.8886 0.0527147
2719 1 8.03213 41.6124 19.0165 -0.327375 0.360482 -0.10453 -0.224243
2720 1 5.28861 39.253 24.0024 -0.421956 -1.07109 -0.044159 0.261276
2721 1 1.5305 49.4932 15.8938 -0.415658 0.145765 -0.581377 0.196895
2722 1 2.03949 42.8234 22.1584 -0.30705 -0.527358 1.32181 -2.4531
2723 1 6.65529 46.3872 13.6558 -0.33572 -0.491253 -0.79861 -0.790384
2724 1 11.7441 43.5161 23.454 -0.37208 0.398164 0.141515 -0.946736
2725 1 6.10837 40.4066 20.4041 -0.390393 0.589108 -1.02081 -1.79687
2726 1 8.22097 38.7176 21.8775 -0.397385 -0.130433 0.499137 0.121409
2727 1 1.30968 39.3523 19.5355 -0.3759 0.864457 -0.0992611 1.75328
2728 1 9.48004 39.4424 18.36 -0.385524 -0.374762 -1.7364 1.30505
2729 1 9.33033 40.6785 23.4128 -0.413138 0.109595 -0.357263 0.573625
2730 1 1.30984 45.8204 13.2533 -0.3901 -0.378259 -0.978418 0.372684
2731 1 11.249 40.8182 19.9576 -0.359788 -1.78541 0.149717 -1.09339
2732 1 11.699 37.6633 13.0427 -0.38564 -2.05834 -0.18105 1.05368
2733 1 7.62712 39.3763 12.725 -0.38795 0.223365 0.508983 0.95895
2734 1 8.85455 46.8499 19.8473 -0.386234 -0.121537 0.843476 -1.39959
2735 1 2.01082 48.8719 19.3326 -0.410241 0.153432 -1.50112 0.229673
2736 1 8.01976 48.6028 17.1008 -0.384079 -1.72668 -0.912308 -0.13585
2737 1 5.81683 46.5152 20.154 -0.319278 -1.06803 0.818328 1.02971
2738 1 8.11344 48.5235 23.6699 -0.340832 0.43719 1.3284 -0.558354
2739 1 5.94273 38.1752 18.3576 -0.43296 0.25292 -0.0653016 0.151556
2740 1 1.87865 48.9921 13.0833 -0.447338 0.427712 -0.822736 0.793117
2741 1 4.65963 48.6134 19.1748 -0.354162 -0.212784 -0.427387 -0.679244
2742 1 10.3191 43.5964 13.3331 -0.328071 0.836605 -0.782203 0.869701
2743 1 2.0135 48.4056 22.7753 -0.381723 -1.03928 1.63379 0.835126
2744 1 5.35792 39.3941 15.5839 -0.368182 -1.6063 1.39743 -0.444624
2745 1 8.55911 44.9251 24.6169 -0.412922 -0.708797 0.207238 0.0177624
2746 1 10.5093 43.1482 21.1054 -0.396032 0.526306 1.13335 0.400599
2747 1 2.36985 43.5622 24.5423 -0.415758 -0.133426 0.600129 1.20318
2748 1 0.298907 46.1027 22.4959 -0.376962 1.89762 0.664778 1.05505
2749 1 9.46986 49.4653 20.0138 -0.325384 -0.97772 0.257743 0.904154
2750 1 1.40814 39.6543 16.6152 -0.41443 -1.01355 2.10183 -1.81468
2751 1 9.68952 41.0245 16.007 -0.385346 -0.153018 0.30803 0.0375499
2752 1 0.750781 46.5535 19.8385 -0.39101 -0.254386 -2.1014 0.426611
2753 2 11.0938 40.2119 15.188 0.190469 0.264834 0.212187 -0.270033
2754 2 5.5125 42.8415 15.0544 0.192128 0.117785 -0.461441 0.748261
2755 2 0.254177 44.1225 15.7324 0.202485 0.32297 0.00354211 0.73377
2756 2 4.27297 41.5271 16.9 0.18013 -0.430685 0.498622 0.487604
2757 2 3.63527 48.8844 24.2104 0.196779 -2.06235 -0.310268 -0.163432
2758 2 6.53227 49.4058 14.441 0.174943 -0.0385985 -0.0535755 -0.0378801
2759 2 5.35527 46.4709 23.302 0.190511 0.514769 0.478837 -1.10082
2760 2 5.73857 47.6578 14.0903 0.185308 0.241595 -0.23406 -0.00271873
2761 2 8.70714 48.3939 12.8477 0.176162 0.676383 0.0148871 -0.370253
2762 2 0.281277 38.3691 20.7113 0.171958 -1.34355 -1.04355 0.657696
2763 2 5.46017 44.3973 23.5971 0.179785 0.0661444 0.517748 0.233625
2764 2 3.83673 41.5059 13.4976 0.192838 -0.388673 -1.73283 0.0449002
2765 2 11.5519 47.5141 16.5979 0.19291 -0.289924 -0.151849 -0.0796897
2766 2 3.00047 45.5005 14.5734 0.184034 0.21945 -0.0700484 -0.0215429
2767 2 9.52609 47.37 23.0099 0.184487 0.057283 -1.05083 -0.557367
2768 2 11.1736 42.169 18.4986 0.169556 -0.444473 0.538295 -1.6416
2769 2 0.687028 41.0762 24.886 0.176823 -0.216037 -0.397946 -0.132787
2770 2 0.424966 42.8633 17.3357 0.192318 -0.924069 -0.586918 0.17218
2771 2 9.5092 46.8027 16.4063 0.199739 -0.371719 0.228393 0.197269
2772 2 9.07731 43.2287 22.1128 0.183634 -1.02615 -0.155951 0.960161
2773 2 7.92449 41.1531 13.2449 0.155924 -0.339489 2.17037 0.540843
2774 2 4.22225 40.5518 20.6463 0.192577 -1.11575 0.102589 0.000312199
2775 2 5.25975 43.2367 20.6259 0.187066 0.35411 -0.213683 0.0775467
2776 2 4.45077 48.2435 15.5876 0.186308 -0.542814 -0.732189 0.878228
2777 2 6.94166 41.8907 17.327 0.196979 0.0188735 0.242433 0.0304767
2778 2 11.8643 38.939 24.199 0.173623 0.815064 1.2941 -1.12743
2779 2 6.80613 45.8656 15.528 0.174753 0.0362829 0.242544 0.791026
2780 2 5.62893 42.3266 22.5778 0.220655 0.0254813 -0.593197 0.202961
2781 2 3.0899 43.9978 19.4253 0.190797 1.43439 -0.0814459 0.248724
2782 2 11.7293 45.5656 19.3065 0.18986 -0.668442 -0.645723 -0.0349272
2783 2 8.3961 40.7796 18.6193 0.181527 0.32077 0.237287 0.460502
2784 2 4.64299 39.6947 24.5994 0.184038 0.568982 -0.00340369 -0.330148
2785 2 0.739056 49.0315 16.2938 0.19462 1.10914 0.347444 -0.0515055
2786 2 1.10002 42.6395 22.1554 0.197676 -0.501438 -0.66942 0.529919
2787 2 7.55193 46.4475 13.2673 0.189391 -0.859307 -0.58332 0.120644
2788 2 11.3725 43.5458 24.3378 0.192828 -0.470179 -0.13408 0.592154
2789 2 5.84524 39.5455 19.9689 0.182023 0.544783 1.18066 0.399254
2790 2 8.81035 39.345 22.3533 0.182795 -0.140076 -0.200488 -0.207688
2791 2 2.15566 39.7784 19.9005 0.203078 -0.926339 -0.15228 -0.264279
2792 2 10.0973 39.8665 18.9924 0.180776 0.0643302 -0.148069 -0.295229
2793 2 9.06031 41.628 23.3645 0.183981 -0.222753 -0.511256 -0.0678166
2794 2 0.633862 45.4651 13.8918 0.19902 0.5598 0.664771 -0.327303
2795 2 11.1306 41.5296 20.576 0.202915 -0.309054 0.948338 0.815898
2796 2 11.0337 49.3782 13.0116 0.197635 0.383457 0.715664 0.0580027
2797 2 6.84189 39.1789 24.6286 0.189173 -0.429166 0.177625 0.130615
2798 2 9.12755 47.7912 19.6908 0.184042 -0.270625 -0.382244 -0.288281
2799 2 1.76173 49.7571 19.2636 0.189506 -1.48562 2.32174 -0.146052
2800 2 7.36539 49.2085 17.5195 0.17529 0.657841 -0.417308 -0.14969
2801 2 5.59158 45.6345 19.8924 0.2197 -0.116168 -1.19947 -0.361899
2802 2 8.14336 49.4474 23.298 0.195097 -0.140713 -1.11242 0.475278
2803 2 5.48611 37.3929 18.7761 0.188695 0.156417 0.553551 -0.202666
2804 2 1.00405 49.3281 12.8505 0.189999 -0.0547995 0.169038 0.37606
2805 2 4.52893 48.2743 18.2523 0.184033 -0.0245319 0.0206689 0.517038
2806 2 10.933 43.6286 14.0918 0.202327 0.0883755 0.539813 -0.303308
2807 2 2.52843 47.9017 22.2004 0.216868 1.33 -1.04872 -1.51507
2808 2 4.73781 39.7321 14.8722 0.186621 0.544306 -0.397397 0.973147
2809 2 8.85144 45.6066 24.0072 0.184833 0.552259 0.0857994 -0.256622
2810 2 10.8913 43.3761 22.0279 0.179581 -0.126207 -0.324434 -1.33878
2811 2 2.14641 43.3333 23.6226 0.183373 0.175817 0.0988204 -0.298599
2812 2 0.488266 46.3951 21.5739 0.170623 -0.213386 -0.205892 0.211301
2813 2 8.68374 49.6698 20.5826 0.198056 0.798683 0.134901 -0.691157
2814 2 1.7602 38.7735 16.5261 0.192674 -0.250235 -0.966764 -0.580458
2815 2 10.0449 41.7728 16.566 0.190545 -0.171827 -0.908697 -0.190303
2816 2 1.42192 45.8082 19.7643 0.198891 -0.458144 1.00275 -0.272907
2817 2 12.2548 40.6538 14.127 0.205087 -0.627043 -0.819447 0.706586
2818 2 6.27108 43.5635 14.0038 0.193891 -0.407825 -0.257488 -0.250898
2819 2 11.4888 45.1899 15.5806 0.210617 -0.439262 0.298811 0.621143
2820 2 2.96688 40.7708 17.064 0.181066 -0.605967 -0.135292 0.0110538
2821 2 5.04375 48.5094 23.7532 0.204931 0.323162 -0.612952 -0.851549
2822 2 7.59466 49.7218 15.4739 0.18544 0.83952 -0.67842 2.53378
2823 2 5.95383 47.0028 21.8121 0.19988 -0.772205 -0.329979 1.1259
2824 2 4.92797 48.794 13.4 0.192485 -0.0857398 -0.000954563 0.160325
2825 2 8.92457 49.0198 14.1303 0.18213 -0.875729 1.47016 1.57889
2826 2 12.0862 38.6954 21.9831 0.170523 -0.459059 0.31572 1.34581
2827 2 4.16743 44.6247 24.2439 0.187715 -1.39588 -0.203857 0.622685
2828 2 2.6766 40.433 13.4898 0.196209 -0.0155379 0.22092 0.0475513
2829 2 11.8933 47.9322 18.0178 0.211739 0.116732 -0.55065 1.90895
2830 2 4.27191 44.5726 14.5957 0.18718 0.165779 -0.109213 -0.043578
2831 2 10.7967 46.5464 22.63 0.191256 -0.283745 -0.266752 -0.00355096
2832 2 10.6662 43.5302 17.8811 0.200083 0.447617 -0.486942 -0.076424
2833 2 1.50319 42.2288 12.9783 0.187875 -0.211261 0.0472468 0.356785
2834 2 1.95193 42.6985 17.0621 0.204648 0.880931 -0.751172 -0.23955
2835 2 10.0282 46.9704 14.9253 0.196538 -0.199529 -0.671837 1.3011
2836 2 8.40022 43.756 23.4979 0.180967 0.193524 0.712757 0.598578
2837 2 8.59801 41.6274 14.4583 0.169823 -0.499115 0.759106 0.348524
2838 2 3.12357 41.6069 20.8551 0.187407 -0.42587 0.378109 0.256638
2839 2 5.12041 42.8644 19.0526 0.199286 0.0801904 0.268039 0.673088
2840 2 3.97424 46.9146 16.3305 0.199779 -0.116818 0.291298 -0.379731
2841 2 6.16416 40.9777 16.3437 0.182304 0.0441603 -0.0601257 -0.120508
2842 2 11.3877 40.2451 23.4383 0.183266 0.247348 -0.369098 0.097639
2843 2 5.96091 45.3486 16.6972 0.206094 1.101 0.788839 -0.016057
2844 2 6.81253 43.2437 22.2679 0.200425 1.90312 -0.303633 0.209881
2845 2 1.84688 43.9266 18.5916 0.18739 -0.831324 -0.327973 -1.03026
2846 2 10.1879 45.7021 19.3203 0.183623 -0.222543 -0.218561 -0.0418024
2847 2 8.73708 42.0074 19.5646 0.197704 -0.628506 -0.333774 -0.38778
2848 2 4.83652 38.4094 23.8111 0.193442 0.500814 0.135007 0.102853
2849 2 2.37233 49.0528 16.1401 0.19051 -0.847334 -0.209026 0.175439
2850 2 2.01716 43.4346 21.3572 0.192233 0.630848 -0.605131 1.05152
2851 2 6.05736 45.8245 13.061 0.185195 1.19564 0.738634 0.745242
2852 2 12.1317 44.3818 23.2682 0.182675 0.112696 0.248341 -0.0031828
2853 2 6.81743 40.7917 19.7532 0.172515 -1.31606 -0.293626 1.55914
2854 2 7.52826 39.3193 21.5476 0.173426 0.0415603 -0.437079 0.0801141
2855 2 1.23593 39.5888 18.6302 0.199739 -0.127062 0.308526 -1.70313
2856 2 9.31639 38.5261 18.7973 0.176908 0.339899 1.81224 -1.02895
2857 2 8.84117 40.2321 24.1439 0.188012 0.301933 0.361973 -0.444169
2858 2 1.40025 46.7718 13.3076 0.202995 -0.154204 0.442223 -0.0340704
2859 2 12.1377 40.5537 19.9457 0.196755 2.11464 -0.880243 0.0244718
2860 2 11.3723 38.3037 13.7733 0.187658 1.13239 -1.14305 -1.47181
2861 2 7.43584 39.1456 13.6701 0.194653 0.414229 -0.383517 -1.47422
2862 2 9.14923 46.7578 20.7321 0.176815 0.344186 -0.627532 1.87111
2863 2 2.96056 48.9878 19.3096 0.191113 0.950357 -0.825403 0.132786
2864 2 7.49485 47.7658 16.914 0.181677 0.733783 1.23075 0.394656
2865 2 6.68932 46.7365 19.9005 0.20592 1.91869 -0.111194 -0.709587
2866 2 7.28994 48.1202 23.3808 0.190101 -0.512037 -0.230007 -0.26622
2867 2 5.45211 38.4079 17.5664 0.197863 -0.0370675 0.175072 -0.13952
2868 2 1.9122 48.8954 14.0646 0.181167 -0.397613 0.697656 -0.919085
2869 2 5.04988 47.8857 19.7128 0.212544 -0.307429 -0.0565683 -0.439478
2870 2 9.72235 42.8558 13.5383 0.183095 -0.487596 0.0286489 -0.460902
2871 2 1.72707 49.1803 22.2551 0.202102 -0.083874 -0.588836 0.43103
2872 2 6.01662 38.915 15.1119 0.173711 0.927825 -0.904899 -0.368321
2873 2 9.3425 44.5407 12.6479 0.197018 -0.376405 0.462745 -0.0766743
2874 2 10.7149 43.8877 20.424 0.184438 -0.27108 -0.816591 1.12578
2875 2 1.8687 44.3645 24.819 0.189457 0.451673 -0.343254 -0.140137
2876 2 1.08482 46.4836 23.0304 0.185099 -2.25824 -0.690705 -1.12554
2877 2 10.188 49.738 20.6077 0.189486 0.478002 0.0546665 -0.276994
2878 2 0.915109 39.8979 15.7138 0.174952 1.00744 -1.17586 2.71087
2879 2 9.34323 40.336 16.6015 0.203389 0.389978 0.26511 -0.0250523
2880 2 1.11235 47.4174 19.6516 0.214168 0.893485 0.852868 -0.347548
2881 1 24.2738 39.8976 14.6278 -0.418913 0.62701 0.76479 -0.510787
2882 1 17.7991 43.3294 14.2532 -0.353967 0.45894 0.667494 -1.26541
2883 1 24.6153 44.6739 15.1556 -0.375171 0.425196 -0.565965 -1.53304
2884 1 15.8247 41.6122 17.2836 -0.403528 0.355396 -0.0559174 -0.252187
2885 1 16.9885 49.061 24.3436 -0.352876 0.354322 0.918391 0.552263
2886 1 19.7832 37.5139 14.6254 -0.382044 -0.623386 0.730582 -1.21572
2887 1 18.1765 47.2337 22.754 -0.427826 0.252676 0.197626 0.550421
2888 1 17.7654 48.5218 14.2722 -0.351854 -0.112115 -0.533467 -0.180223
2889 1 21.8354 48.4778 13.5434 -0.386848 0.830279 -1.58134 -1.11391
2890 1 24.5028 37.9749 21.3641 -0.434846 1.58461 0.541941 -1.89037
2891 1 17.4514 45.0537 24.1858 -0.334548 1.48579 0.0335136 -0.690251
2892 1 16.0854 40.522 13.5245 -0.332414 1.00169 1.73558 0.0692549
2893 1 24.3251 48.2345 17.1417 -0.39635 0.206429 1.46315 -2.95691
2894 1 16.3229 45.3815 14.9513 -0.464785 -0.0885462 0.247498 0.244869
2895 1 22.2664 46.4925 22.6247 -0.365733 0.550214 1.89501 0.58074
2896 1 23.4468 42.6461 17.6162 -0.321334 0.33351 -0.360575 1.73044
2897 1 13.4164 41.4543 13.2829 -0.360022 0.729583 0.841761 -1.1667
2898 1 13.6865 43.3241 17.2059 -0.373294 -0.0366179 0.85017 -0.387148
2899 1 22.5455 46.4254 15.7638 -0.355658 0.990238 0.615048 -2.62112
2900 1 20.8381 43.0497 22.8355 -0.372016 0.35769 -0.490976 -1.27542
2901 1 20.5006 42.0508 13.7476 -0.36938 0.668766 -2.78824 -0.74674
2902 1 15.6771 40.6762 20.7046 -0.398914 1.98642 0.136688 -0.0759494
2903 1 17.4669 43.546 19.7328 -0.409036 -0.288304 0.0163309 0.120982
2904 1 16.3859 47.8841 16.3936 -0.405858 0.494209 0.173238 -0.124139
2905 1 18.6925 41.8907 16.6526 -0.381589 -0.384561 -0.259225 -0.132948
2906 1 24.6279 39.6853 23.5543 -0.379259 -1.04558 -0.595058 1.09187
2907 1 19.2031 45.9007 16.5126 -0.407933 -1.08018 -0.681615 -0.818719
2908 1 18.312 43.174 22.234 -0.345358 -1.43701 1.79897 -0.710397
2909 1 14.6234 44.2431 19.4341 -0.39994 0.272995 0.585098 1.5879
2910 1 23.3356 45.0262 19.2252 -0.353839 0.752396 0.667653 0.045612
2911 1 20.4751 41.6147 19.0167 -0.327576 0.628295 -0.178824 -0.0905199
2912 1 17.7327 39.2583 24.0033 -0.420815 -1.12059 -0.259361 0.171892
2913 1 13.9747 49.4912 15.899 -0.410047 -0.366759 -0.415444 0.190733
2914 1 14.4845 42.8209 22.1557 -0.308344 0.249129 1.28484 -2.12302
2915 1 19.1055 46.3837 13.6555 -0.336009 -1.84153 -1.18143 -0.703673
2916 1 24.1902 43.5147 23.4558 -0.374585 0.208103 -0.0169704 -0.826817
2917 1 18.553 40.4035 20.4085 -0.390008 0.785359 -0.597798 -1.62405
2918 1 20.6653 38.7112 21.8756 -0.395811 -0.126868 0.83723 0.126767
2919 1 13.7535 39.3563 19.5337 -0.38239 1.18931 0.128983 1.58096
2920 1 21.9202 39.4465 18.3635 -0.381736 -0.207851 -1.71637 1.47315
2921 1 21.7739 40.6737 23.4162 -0.408748 0.625843 -0.215266 -0.113996
2922 1 13.7574 45.8259 13.2557 -0.387787 0.0507376 -0.491513 0.000150161
2923 1 23.6965 40.8174 19.9532 -0.360635 -2.14811 0.936611 -0.473865
2924 1 24.1441 37.6634 13.0445 -0.375914 -1.71058 -0.40888 0.720247
2925 1 20.0711 39.3748 12.724 -0.394813 0.186595 0.446438 1.45445
2926 1 21.3022 46.854 19.8463 -0.387313 -0.281962 0.4559 -1.47293
2927 1 14.457 48.8744 19.3317 -0.410922 0.674706 -0.99867 0.211193
2928 1 20.4636 48.6062 17.1056 -0.383387 -1.20407 -0.427302 -0.0860586
2929 1 18.2658 46.5136 20.1538 -0.322325 -1.51465 0.310042 0.920527
2930 1 20.5564 48.5233 23.6639 -0.339831 0.447187 1.56912 -0.609041
2931 1 18.3839 38.175 18.3539 -0.430318 0.457541 0.0340895 0.165305
2932 1 14.3252 48.9932 13.0865 -0.445958 -0.37469 -0.499988 0.477423
2933 1 17.1062 48.6171 19.1763 -0.346131 -0.363427 -0.429285 -1.14705
2934 1 22.7644 43.5918 13.3338 -0.325016 1.5238 -0.488108 1.41339
2935 1 14.4512 48.4056 22.7738 -0.380412 -0.727713 1.33431 0.715344
2936 1 17.8039 39.392 15.5872 -0.371052 -1.85873 1.63462 -0.481581
2937 1 21.0061 44.9235 24.6112 -0.416071 -0.212725 0.0406335 0.311962
2938 1 22.9557 43.1461 21.1025 -0.399024 0.643306 1.28283 0.639555
2939 1 14.8169 43.5633 24.5427 -0.416272 -0.601297 1.08695 1.11735
2940 1 12.7454 46.1036 22.4954 -0.375893 2.18872 0.72514 1.51143
2941 1 21.9154 49.4665 20.0132 -0.328765 -1.43289 0.318454 1.24943
2942 1 13.854 39.6536 16.6149 -0.409878 -1.13803 2.6174 -1.46339
2943 1 22.1366 41.0202 16.0044 -0.386422 -0.126153 0.301254 0.0271057
2944 1 13.1946 46.5542 19.8335 -0.389926 0.291519 -1.98033 0.302515
2945 2 23.532 40.2063 15.1752 0.191388 0.0386039 0.327088 -0.0655711
2946 2 17.949 42.8416 15.0364 0.194633 0.216662 -0.994243 1.59975
2947 2 12.6963 44.1436 15.7313 0.203062 0.696106 -0.417361 1.18309
2948 2 16.713 41.5289 16.9131 0.182387 -0.00497683 0.395487 0.27002
2949 2 16.0667 48.9094 24.1903 0.195717 -1.33704 -0.177284 -0.041211
2950 2 18.97 49.3963 14.435 0.174442 0.14473 0.0238869 0.0767559
2951 2 17.8162 46.4762 23.2944 0.193199 0.324796 0.188359 -0.909195
2952 2 18.1772 47.6307 14.0805 0.18344 0.00407091 0.486417 0.138288
2953 2 21.1565 48.4221 12.8451 0.177051 0.509526 -0.0510767 -0.52225
2954 2 12.706 38.3831 20.7155 0.173588 -1.00696 -1.0194 0.261455
2955 2 17.901 44.4152 23.591 0.18091 0.212409 0.319193 0.110073
2956 2 16.2946 41.5117 13.5131 0.194006 -0.606733 -2.00888 -0.0117455
2957 2 23.9936 47.5324 16.5893 0.194839 -0.420918 -0.39744 -0.279528
2958 2 15.4417 45.5042 14.5929 0.185858 0.00395473 -0.0608887 -0.145768
2959 2 21.9702 47.3802 23.004 0.182583 0.177611 -1.36792 -0.677349
2960 2 23.6395 42.1701 18.4931 0.172688 -0.531193 0.585559 -1.5121
2961 2 13.1294 41.0896 24.8865 0.178463 -0.371284 -0.640196 -0.411144
2962 2 12.8763 42.8478 17.3272 0.191048 -1.00439 -0.457824 0.175337
2963 2 21.9511 46.8062 16.3844 0.199635 -0.810176 0.485595 0.679886
2964 2 21.5095 43.2153 22.1289 0.185414 -0.47181 -0.0231525 0.308625
2965 2 20.3703 41.1639 13.2444 0.157577 -0.451546 1.92272 0.329542
2966 2 16.6742 40.5615 20.6521 0.190615 -1.29934 0.0757826 -0.00954947
2967 2 17.7157 43.2308 20.6487 0.184035 0.104575 0.13574 -0.936405
2968 2 16.8914 48.2295 15.5835 0.185749 -0.412339 -0.555801 0.722142
2969 2 19.3729 41.8899 17.3282 0.197188 0.23474 0.30034 0.241231
2970 2 24.329 38.9469 24.1967 0.177528 0.596177 1.14131 -0.986087
2971 2 19.2335 45.885 15.5243 0.174184 0.0281992 0.165985 0.793461
2972 2 18.0715 42.3387 22.5547 0.220914 -0.438929 -1.87357 0.713508
2973 2 15.5513 44.0008 19.4284 0.189222 0.652647 0.0653688 0.148582
2974 2 24.1682 45.562 19.3109 0.18994 -0.486406 -0.543164 -0.0313515
2975 2 20.8429 40.7781 18.6176 0.180617 0.25558 0.384341 0.530028
2976 2 17.0885 39.6987 24.6001 0.184588 0.517224 0.0468518 -0.281312
2977 2 13.1814 49.0356 16.3166 0.195645 1.22924 0.392296 -0.164237
2978 2 13.5584 42.643 22.1742 0.199834 -1.23752 -0.800776 0.468109
2979 2 19.9866 46.4377 13.2794 0.193242 -0.0166047 -0.523588 -0.295517
2980 2 23.7958 43.5402 24.3352 0.193343 -0.312105 -0.0497908 0.372611
2981 2 18.2878 39.5501 19.9858 0.184894 0.444602 0.818179 0.197386
2982 2 21.2603 39.3508 22.3382 0.180986 -0.240045 -0.388603 -0.230356
2983 2 14.6201 39.7613 19.9129 0.202128 -1.31683 -0.218076 -0.409364
2984 2 22.5496 39.8498 19.0061 0.179666 -0.0769631 -0.140834 -0.462632
2985 2 21.5083 41.6132 23.3485 0.18613 -0.285174 -0.156172 -0.0595116
2986 2 13.0957 45.4683 13.8849 0.199829 0.137375 0.465679 0.0240013
2987 2 23.5559 41.5266 20.6012 0.201606 -0.157114 0.254474 0.112331
2988 2 23.4646 49.3706 13.0152 0.194321 0.771625 1.15144 0.0736603
2989 2 19.2799 39.1769 24.6236 0.187486 -0.24697 0.229231 0.318247
2990 2 21.573 47.7861 19.6988 0.184904 -0.172752 0.0425889 -0.401675
2991 2 14.1908 49.7627 19.2548 0.187799 -1.2242 1.78721 -0.131453
2992 2 19.8155 49.2049 17.5296 0.17752 0.504833 -0.215471 -0.0387111
2993 2 18.0306 45.6291 19.8807 0.218744 0.00480435 -0.74918 -0.210857
2994 2 20.5923 49.4647 23.3053 0.195397 -0.287741 -1.57848 0.550056
2995 2 17.931 37.3917 18.7565 0.188916 0.0766445 0.347099 0.000346442
2996 2 13.4315 49.3318 12.8502 0.186896 0.722242 -0.108959 0.583483
2997 2 16.9821 48.2909 18.2398 0.183133 -0.0523 0.131591 0.744922
2998 2 23.3873 43.6205 14.1074 0.200715 -0.326339 0.592637 -0.864758
2999 2 14.9617 47.8789 22.2036 0.218085 1.02338 -0.71502 -1.26948
3000 2 17.1935 39.756 14.8701 0.185318 0.696222 -0.584915 1.11088
3001 2 21.2922 45.6158 24.0074 0.184571 0.575377 0.010523 -0.1711
3002 2 23.3296 43.3975 22.0347 0.176381 -0.20934 -0.47931 -1.59784
3003 2 14.5755 43.3368 23.6233 0.179662 0.313441 0.0985159 -0.128525
3004 2 12.9529 46.3905 21.5833 0.170461 -0.245726 -0.13987 -0.0992765
3005 2 21.1331 49.6785 20.6093 0.195336 1.17229 0.0380326 -1.05386
3006 2 14.1799 38.7782 16.5234 0.194039 0.103346 -1.73288 -0.548861
3007 2 22.5064 41.7599 16.5588 0.190086 -0.160328 -0.758886 -0.172931
3008 2 13.8931 45.8202 19.7571 0.195723 -0.815823 1.11127 -0.232357
3009 2 24.6979 40.6617 14.1229 0.205527 -0.731514 -0.973274 0.814945
3010 2 18.7131 43.5581 14.0105 0.194993 -0.461902 -0.22493 -0.287031
3011 2 23.944 45.1829 15.5865 0.211436 -0.789539 0.561512 0.842928
3012 2 15.401 40.7776 17.0579 0.182627 -0.564349 -0.241223 -0.0306673
3013 2 17.4802 48.5047 23.7491 0.20375 0.380956 -0.671041 -0.882903
3014 2 20.0451 49.7249 15.4868 0.184745 0.601377 -0.532994 1.89895
3015 2 18.3795 47.0311 21.8139 0.203325 -0.622312 -0.525238 0.653764
3016 2 17.3761 48.7917 13.3958 0.19134 -0.125791 0.025672 0.0777038
3017 2 21.372 49.0111 14.1427 0.182889 -0.889795 1.46279 1.63612
3018 2 24.5193 38.6949 21.9908 0.169943 -0.364113 0.253379 1.14261
3019 2 16.6167 44.6196 24.2378 0.188264 -1.66087 -0.32383 0.654926
3020 2 15.1251 40.4105 13.4936 0.198882 -0.035335 0.378142 0.0411
3021 2 24.354 47.9253 17.9918 0.214043 0.192641 -1.01144 3.12737
3022 2 16.7066 44.5561 14.6001 0.187633 0.0485153 0.138797 0.0322796
3023 2 23.2553 46.5467 22.6255 0.188957 -0.735386 -0.280906 0.0229777
3024 2 23.1304 43.5351 17.8633 0.202675 0.285609 -0.225156 0.125618
3025 2 13.9624 42.2477 12.9841 0.186625 -0.620574 -0.562506 0.439971
3026 2 14.3796 42.6858 17.0453 0.20245 0.947978 -0.567683 -0.214035
3027 2 22.4683 46.9678 14.9049 0.19503 -0.13642 -0.947078 1.74378
3028 2 20.8575 43.7715 23.4825 0.181588 0.148869 0.635302 0.645123
3029 2 21.035 41.6216 14.4407 0.172328 -0.231846 0.629724 0.759453
3030 2 15.5722 41.6268 20.8575 0.184695 -0.380028 -0.504165 0.104856
3031 2 17.5643 42.868 19.0435 0.198852 0.0924073 0.252801 0.721797
3032 2 16.4236 46.912 16.333 0.198799 -0.148198 0.511462 -0.329536
3033 2 18.6271 40.9735 16.3457 0.182029 -0.0383644 -0.125188 -0.18033
3034 2 23.8409 40.2546 23.4308 0.18555 0.250735 -0.46491 0.176888
3035 2 18.3989 45.3603 16.7084 0.20638 1.14658 0.76401 -0.100292
3036 2 19.2612 43.2192 22.2738 0.200671 1.64326 -0.232169 0.178166
3037 2 14.2723 43.9183 18.6054 0.187519 -0.699539 -0.363798 -1.04638
3038 2 22.6374 45.699 19.3343 0.184031 -0.384992 -0.0848902 -0.0712352
3039 2 21.1858 42.004 19.5733 0.196054 -0.838463 -0.425936 -0.565216
3040 2 17.2782 38.4098 23.8166 0.192715 0.590861 0.290475 0.132489
3041 2 14.8093 49.0524 16.1323 0.192154 -0.457249 -0.407369 0.312087
3042 2 14.4677 43.433 21.3673 0.194463 0.551797 -0.426819 0.770563
3043 2 18.4836 45.813 13.0558 0.18592 1.62005 1.05782 1.04835
3044 2 24.5795 44.3749 23.2583 0.183977 0.130704 0.351304 0.0917533
3045 2 19.269 40.7884 19.7581 0.172873 -1.39248 -0.323995 1.58092
3046 2 19.9741 39.3205 21.5427 0.171314 0.135514 -0.595849 0.134172
3047 2 13.706 39.6039 18.6233 0.19731 -0.0992333 0.207822 -1.35443
3048 2 21.7562 38.5255 18.7912 0.17646 0.314644 1.81816 -1.04564
3049 2 21.2818 40.2551 24.1333 0.189397 -0.138049 -0.134499 0.230978
3050 2 13.8279 46.7853 13.3002 0.20306 -0.149324 0.155768 -0.0394653
3051 2 24.5822 40.555 19.9601 0.196486 2.30827 -0.932436 0.0834844
3052 2 23.8366 38.277 13.7819 0.190279 0.925848 -0.739403 -1.11399
3053 2 19.8771 39.1549 13.6826 0.192032 0.511003 -0.316895 -1.88752
3054 2 21.5958 46.7556 20.7271 0.177722 0.390088 -0.674538 2.07191
3055 2 15.4225 48.9921 19.3221 0.189915 0.194031 -0.806587 0.131017
3056 2 19.9472 47.7865 16.925 0.18438 0.372005 0.562505 0.225125
3057 2 19.1364 46.7262 19.9043 0.20568 2.19491 -0.0415104 -0.774459
3058 2 19.7357 48.1 23.3794 0.190916 -0.351505 0.00412771 -0.258717
3059 2 17.8978 38.3991 17.5628 0.198403 -0.131339 0.288457 -0.349541
3060 2 14.361 48.9171 14.0669 0.180212 -0.395782 0.630743 -0.820171
3061 2 17.4912 47.8743 19.6859 0.211118 -0.156131 -0.212101 -0.186315
3062 2 22.1742 42.8619 13.5521 0.183101 -0.757069 -0.287229 -0.429811
3063 2 14.1772 49.1898 22.2642 0.204337 -0.0639895 -0.60479 0.305685
3064 2 18.4652 38.9115 15.1264 0.174728 1.02621 -0.991764 -0.503725
3065 2 21.7907 44.5367 12.665 0.198623 -0.528276 0.625186 -0.333657
3066 2 23.1487 43.8892 20.4176 0.182769 -0.242013 -0.897585 1.1521
3067 2 14.2974 44.3747 24.8169 0.185811 0.825034 -0.824362 -0.226823
3068 2 13.5396 46.4885 23.036 0.183591 -2.53929 -0.833479 -1.25507
3069 2 22.6404 49.7152 20.6056 0.188563 0.563043 0.104473 -0.246432
3070 2 13.3559 39.8762 15.7318 0.176257 0.81956 -0.902564 2.30467
3071 2 21.7974 40.3453 16.615 0.201989 0.33211 0.134476 -0.0225222
3072 2 13.5664 47.4242 19.6587 0.211164 0.681203 0.604573 -0.286123
3073 1 11.8273 2.56309 27.0713 -0.423475 0.731303 0.540823 -0.601321
3074 1 5.36271 6.00288 26.695 -0.358307 0.245157 0.239333 -0.652257
3075 1 12.173 7.34126 27.5993 -0.375131 0.243967 -0.324114 -1.71596
3076 1 3.37997 4.27841 29.731 -0.398748 0.56415 -0.514281 -0.531922
3077 1 4.54182 11.7285 36.7915 -0.356781 2.00642 0.729622 0.254322
3078 1 7.34554 0.180892 27.0667 -0.366683 -0.0772796 1.41564 -1.72834
3079 1 5.73028 9.90153 35.2022 -0.422656 0.328788 0.116686 0.215313
3080 1 5.31652 11.1903 26.7189 -0.346736 -0.421371 0.274028 0.157827
3081 1 9.39126 11.1406 25.9905 -0.38377 0.436073 -1.37891 -1.05359
3082 1 12.0578 0.640772 33.8121 -0.43654 1.56919 0.570988 -1.90195
3083 1 5.01114 7.71784 36.625 -0.331938 1.39803 0.419691 -0.380136
3084 1 3.63888 3.1897 25.9698 -0.327452 0.469845 1.69789 0.00724612
3085 1 11.8778 10.8999 29.5898 -0.393412 0.190998 1.13028 -2.77144
3086 1 3.881 8.04986 27.3995 -0.465369 -0.521494 0.657235 0.332093
3087 1 9.82071 9.1567 35.0725 -0.363732 0.771157 1.53155 0.378665
3088 1 11.0026 5.30967 30.0592 -0.323537 0.33094 -0.46895 1.99978
3089 1 0.969657 4.11806 25.7286 -0.355496 0.641248 0.596137 -0.505601
3090 1 1.23873 5.98977 29.6489 -0.378539 -0.13653 1.00163 -0.353423
3091 1 10.1013 9.08856 28.2103 -0.35342 0.748222 0.88618 -2.62273
3092 1 8.38655 5.71974 35.2793 -0.374488 0.768844 -0.139373 -1.43067
3093 1 8.06116 4.71936 26.1897 -0.368229 0.707263 -2.93342 -0.516655
3094 1 3.23029 3.33999 33.149 -0.404288 2.4565 -0.301346 -0.166152
3095 1 5.01852 6.21151 32.1797 -0.411567 -0.350777 0.286395 0.0689886
3096 1 3.94349 10.5501 28.8368 -0.406181 0.426626 0.680844 -0.0965258
3097 1 6.25023 4.56193 29.099 -0.380214 -0.0829251 -0.661695 0.106267
3098 1 12.1804 2.3516 36 -0.381637 -0.66803 -0.875551 1.14429
3099 1 6.7606 8.56719 28.9597 -0.408011 -0.854625 -0.516148 -0.274347
3100 1 5.86665 5.83836 34.6808 -0.34792 -1.92121 1.30936 -0.569089
3101 1 2.18387 6.90388 31.8771 -0.402816 -0.0904348 0.762175 1.74774
3102 1 10.8933 7.6855 31.6692 -0.353366 0.710212 1.29435 0.125001
3103 1 8.02636 4.28056 31.4608 -0.330716 0.229308 0.549928 0.144546
3104 1 5.29101 1.92264 36.4491 -0.415888 -0.950186 0.310028 0.361193
3105 1 1.52882 12.1584 28.3385 -0.408788 0.444826 -0.871606 0.415699
3106 1 2.03833 5.49158 34.6026 -0.308188 -0.182532 1.07291 -2.1154
3107 1 6.66206 9.04663 26.1032 -0.343726 -1.93197 -1.25569 -0.806304
3108 1 11.7485 6.17837 35.8988 -0.374626 -0.203361 -0.337142 -0.109922
3109 1 6.11025 3.07462 32.8467 -0.379971 -0.131327 -1.54265 -1.26774
3110 1 8.21623 1.37857 34.3172 -0.393946 -0.834986 0.6356 -0.261314
3111 1 1.3101 2.02016 31.9807 -0.38022 0.885307 -0.143351 2.04454
3112 1 9.48259 2.11025 30.8103 -0.389713 -0.427177 -1.92311 1.27509
3113 1 9.3305 3.33984 35.8598 -0.418211 0.181668 -0.425154 0.407776
3114 1 1.31118 8.48917 25.6996 -0.400107 -0.84969 -1.91836 0.795542
3115 1 11.2511 3.48409 32.3995 -0.363997 -3.3843 0.927701 -0.795117
3116 1 11.7012 0.330041 25.4937 -0.375245 -1.69563 0.26031 1.17411
3117 1 7.63302 2.04101 25.1713 -0.386896 0.594093 0.631065 1.33021
3118 1 8.85861 9.52201 32.2888 -0.38386 -0.273518 0.324547 -1.39411
3119 1 2.00907 11.5389 31.7765 -0.410714 0.991815 -0.617588 0.14773
3120 1 8.02048 11.2677 29.5494 -0.381312 -1.86403 -0.166545 0.158779
3121 1 5.82026 9.18123 32.602 -0.319473 -1.2856 0.00118866 0.763255
3122 1 8.11041 11.1936 36.1111 -0.34987 -0.0155958 1.11924 -0.715933
3123 1 5.94154 0.83997 30.8001 -0.431334 0.331041 0.0190737 0.189386
3124 1 1.88124 11.6611 25.5288 -0.448683 0.175464 -0.663677 0.469954
3125 1 4.65751 11.28 31.6197 -0.347183 -0.383385 -0.386507 -1.32436
3126 1 10.324 6.25949 25.7805 -0.331333 0.846873 -0.775707 0.99364
3127 1 2.00529 11.074 35.2213 -0.380365 -0.288261 0.710993 0.382578
3128 1 5.36172 2.06188 28.0297 -0.366811 -1.36785 1.27014 -0.7783
3129 1 8.56041 7.59074 37.0634 -0.411492 -0.58789 -0.144018 0.344742
3130 1 10.509 5.80847 33.5515 -0.395499 0.609632 1.39883 0.335384
3131 1 2.36846 6.22655 36.9886 -0.422076 -0.239101 0.721033 1.17527
3132 1 0.29788 8.77161 34.9339 -0.381402 2.10648 0.804499 1.36411
3133 1 9.47081 12.1314 32.4603 -0.330053 -1.37648 0.151687 0.789188
3134 1 1.41054 2.32201 29.0614 -0.409627 -1.18727 2.51137 -1.73287
3135 1 9.68701 3.69099 28.4512 -0.387085 -0.562821 -0.475854 0.0149347
3136 1 0.752789 9.22113 32.2783 -0.387864 0.188186 -2.09515 0.324234
3137 2 11.0951 2.86543 27.6274 0.19341 -0.0729998 0.471124 -0.0193298
3138 2 5.49986 5.51509 27.4937 0.193991 0.150929 -0.638767 1.04278
3139 2 0.234921 6.80916 28.1756 0.204191 1.07874 -0.793876 1.50251
3140 2 4.27386 4.18784 29.3573 0.179056 -0.242015 0.539598 0.417946
3141 2 3.64096 11.5702 36.6592 0.197322 -2.6635 -0.369676 -0.199203
3142 2 6.52745 12.0751 26.8612 0.175952 0.0491508 -0.0834322 0.198908
3143 2 5.38557 9.13993 35.7436 0.192662 0.261523 0.193853 -0.846964
3144 2 5.74123 10.3332 26.535 0.185756 0.331829 -0.468474 -0.0324838
3145 2 8.70486 11.0802 25.2921 0.175725 0.71844 -0.076037 -0.409364
3146 2 0.273041 1.0306 33.1657 0.174748 -1.02465 -0.891267 0.313676
3147 2 5.46174 7.09123 36.036 0.183095 0.406594 0.00700192 -0.158914
3148 2 3.82709 4.18156 25.9488 0.192755 -0.463629 -1.94696 0.0168557
3149 2 11.5489 10.1866 29.0431 0.193291 -0.347776 -0.227646 -0.220742
3150 2 2.99736 8.16757 27.0304 0.185245 0.268119 -0.112929 -0.0565548
3151 2 9.5342 10.0343 35.4439 0.183821 -0.0715901 -0.908207 -0.457491
3152 2 11.1795 4.84826 30.9482 0.168048 -0.417955 0.392134 -1.68638
3153 2 0.673472 3.75193 37.3251 0.175951 -0.1102 -0.310096 0.152765
3154 2 0.428832 5.51197 29.7719 0.191641 -0.910018 -0.514228 0.150468
3155 2 9.50922 9.4769 28.8338 0.197927 -0.675279 0.373009 0.607097
3156 2 9.07668 5.89861 34.5735 0.182454 -0.854959 -0.158074 0.648926
3157 2 7.9098 3.82495 25.7004 0.157284 -0.309305 2.00872 0.388751
3158 2 4.23999 3.20869 33.088 0.190198 -1.82848 0.289024 0.0517938
3159 2 5.27071 5.90274 33.0914 0.185884 0.130748 0.00603173 -0.785961
3160 2 4.43344 10.898 28.0151 0.186982 -0.383307 -0.64519 0.804663
3161 2 6.92622 4.55204 29.7938 0.194942 -0.103853 0.307709 -0.112574
3162 2 11.8867 1.60431 36.637 0.178381 0.563011 1.2149 -0.993242
3163 2 6.79981 8.5377 27.9873 0.177694 0.0845035 0.188324 0.133803
3164 2 5.62237 5.00188 35.0214 0.221767 -0.229815 -1.33461 0.518928
3165 2 3.10632 6.67049 31.8722 0.191175 0.98242 -0.0608458 0.0781001
3166 2 11.7416 8.22285 31.7507 0.188863 -0.939613 -0.750465 -0.0433559
3167 2 8.38353 3.45624 31.0927 0.182479 0.532992 -0.464133 0.0265737
3168 2 4.64656 2.37686 37.0403 0.185398 0.593651 -0.0262914 -0.335184
3169 2 0.748108 11.6809 28.7482 0.192995 1.10573 0.472621 -0.116379
3170 2 1.10754 5.28532 34.6146 0.200023 -0.650342 -0.59398 0.424236
3171 2 7.533 9.10478 25.7121 0.190782 0.140584 -0.500428 -0.287001
3172 2 11.352 6.21444 36.7922 0.191515 -0.0989897 -0.119192 -0.180534
3173 2 5.8414 2.21064 32.4101 0.183549 0.612636 1.29399 0.461413
3174 2 8.80248 2.00552 34.7735 0.182736 0.221181 0.0380813 0.067929
3175 2 2.15869 2.43917 32.3496 0.203037 -0.95639 -0.135131 -0.257516
3176 2 10.1065 2.52463 31.4409 0.180406 0.0802147 -0.103925 -0.268844
3177 2 9.06723 4.28537 35.7939 0.18497 -0.284556 -0.395012 0.00854046
3178 2 0.639715 8.0982 26.3607 0.198793 1.02754 1.10794 -0.843626
3179 2 11.1192 4.20534 33.018 0.203916 -0.196693 0.618735 0.533527
3180 2 11.022 12.0344 25.4482 0.194821 0.86226 1.28593 0.131046
3181 2 6.8213 1.83534 37.0772 0.186062 0.0139734 0.317634 0.43485
3182 2 9.12852 10.4517 32.1432 0.185459 -0.141612 0.159008 -0.442241
3183 2 1.75429 12.4343 31.6954 0.185635 -1.26949 1.57211 -0.102909
3184 2 7.35802 11.8801 29.9773 0.173282 1.01693 -0.733964 -0.377914
3185 2 5.59982 8.28794 32.3226 0.216902 0.0148289 -0.448924 -0.100923
3186 2 8.13631 12.1241 35.7481 0.194078 -0.196865 -1.25943 0.476512
3187 2 5.47853 0.0608883 31.2128 0.18875 0.125409 0.429742 -0.130751
3188 2 0.994332 11.9764 25.285 0.189502 0.255081 0.0914086 0.499763
3189 2 4.53322 10.9423 30.6812 0.183787 0.0116753 0.190703 0.963999
3190 2 10.9297 6.29169 26.5481 0.201066 0.0609587 0.57286 -0.402839
3191 2 2.53178 10.5418 34.6533 0.216251 0.687414 -0.400671 -0.824155
3192 2 4.7505 2.42232 27.3139 0.18524 0.642002 -0.529836 1.083
3193 2 8.84318 8.26766 36.4545 0.18669 0.690286 0.346566 -0.444199
3194 2 10.8818 6.05241 34.4774 0.176976 -0.120552 -0.438218 -1.41757
3195 2 2.1649 5.98313 36.0644 0.184093 0.144985 0.205632 -0.16327
3196 2 0.499343 9.05167 34.0139 0.170278 -0.22693 -0.149247 0.106365
3197 2 8.69336 12.3413 33.0452 0.19704 0.866328 0.121686 -0.809796
3198 2 1.755 1.45402 28.9406 0.193161 0.022985 -1.55304 -0.520225
3199 2 10.0266 4.44507 28.9838 0.193722 -0.00278456 -0.573876 0.156966
3200 2 1.45911 8.49815 32.2061 0.19587 -0.807973 1.05066 -0.250385
3201 2 12.2608 3.31634 26.5595 0.206743 -0.780674 -0.878375 0.882824
3202 2 6.27448 6.20495 26.4461 0.195594 -0.165315 -0.16279 -0.322319
3203 2 11.4995 7.85207 28.0222 0.211104 -0.855495 0.608043 0.819149
3204 2 2.97345 3.42981 29.4909 0.179525 -0.550601 0.128163 0.119499
3205 2 5.02983 11.1727 36.1731 0.204325 0.0829269 -0.306188 -0.471362
3206 2 7.60593 12.3864 27.9337 0.184988 0.447401 -0.53159 1.63436
3207 2 5.93627 9.68345 34.2586 0.202253 -0.660768 -0.409446 0.887155
3208 2 4.9267 11.4516 25.8477 0.193107 -0.22707 0.0985852 -0.138525
3209 2 8.91224 11.6824 26.5789 0.180415 -0.696744 1.29904 1.45394
3210 2 12.0641 1.36188 34.4389 0.169501 -0.334802 0.225239 1.0838
3211 2 4.182 7.28011 36.6896 0.189643 -1.76906 -0.394775 0.66259
3212 2 2.67003 3.07799 25.9301 0.196463 0.366472 0.332199 0.0664226
3213 2 11.8854 10.5928 30.4459 0.213131 0.143074 -0.842315 2.86297
3214 2 4.2715 7.23403 27.0605 0.189094 0.189182 -0.211243 -0.169274
3215 2 10.808 9.22972 35.0652 0.188735 -0.706069 -0.390592 0.00309435
3216 2 10.6991 6.1888 30.3356 0.198831 0.177135 0.127238 -0.0180937
3217 2 1.51803 4.88834 25.4329 0.190201 -0.313054 -0.00019906 0.33243
3218 2 1.94747 5.3697 29.4949 0.203823 0.941518 -0.695948 -0.221418
3219 2 10.0096 9.64421 27.3545 0.192397 -0.0363657 -1.08777 1.81987
3220 2 8.39495 6.4451 35.9326 0.179544 0.147661 0.379085 0.445595
3221 2 8.58718 4.29568 26.9024 0.170849 -0.377557 0.702442 0.476491
3222 2 3.12401 4.28232 33.3132 0.184892 -0.315695 -0.209899 0.15483
3223 2 5.10278 5.542 31.4859 0.200756 0.137019 0.0950018 0.6315
3224 2 3.95907 9.58654 28.7816 0.201513 -0.0931445 0.0842689 -0.399511
3225 2 6.17634 3.63402 28.7968 0.179825 0.00750316 0.262199 -0.0758111
3226 2 11.4032 2.91812 35.8732 0.187591 -0.105338 -0.256177 0.151335
3227 2 5.96034 8.03391 29.1506 0.208082 0.863129 0.582557 0.016798
3228 2 6.81064 5.89092 34.7076 0.201334 1.91304 -0.275612 0.204801
3229 2 1.81534 6.58497 31.0566 0.188357 -0.654134 -0.411148 -1.13034
3230 2 10.1846 8.37322 31.7558 0.18243 0.115318 -0.506996 -0.0657384
3231 2 8.74027 4.6606 32.0074 0.196785 -0.668835 -0.211843 -0.357286
3232 2 4.83628 1.08745 36.2709 0.194783 0.32948 -0.218315 0.000275168
3233 2 2.37835 11.7203 28.5987 0.187705 -1.12298 -0.0281882 0.0211517
3234 2 2.02973 6.09674 33.8084 0.19487 0.445229 -0.432353 0.822691
3235 2 6.047 8.46616 25.5011 0.183242 1.58442 1.16969 1.15798
3236 2 12.1167 7.03672 35.6947 0.183592 0.322718 0.715265 -0.0121872
3237 2 6.79461 3.45011 32.2132 0.177022 -0.720439 0.0334152 0.977978
3238 2 7.51315 1.99463 33.9984 0.171032 0.390372 -0.820761 0.212239
3239 2 1.25346 2.25029 31.0779 0.199807 -0.142362 0.361353 -1.99411
3240 2 9.31874 1.18585 31.2387 0.17629 0.378544 1.94611 -1.04791
3241 2 8.81846 2.89269 36.5713 0.188586 0.272658 0.336143 -0.330625
3242 2 1.38846 9.43256 25.7374 0.204708 -0.170722 0.944835 0.0921213
3243 2 12.1157 3.2198 32.3883 0.200934 3.59181 -1.29318 0.0614786
3244 2 11.364 0.94905 26.2374 0.188562 1.2258 -1.02388 -1.53161
3245 2 7.43661 1.81416 26.1177 0.195594 0.45424 -0.359722 -1.53472
3246 2 9.14596 9.42676 33.1734 0.177614 0.370819 -0.690767 2.00129
3247 2 2.98033 11.6718 31.7579 0.188152 -0.0903872 -0.979025 0.165799
3248 2 7.49687 10.4461 29.3552 0.18206 0.517919 0.832825 0.323885
3249 2 6.69309 9.39561 32.3461 0.203996 1.95892 -0.0321532 -0.69718
3250 2 7.28381 10.769 35.8169 0.188188 0.0133683 0.131853 -0.0985221
3251 2 5.44693 1.08268 30.0169 0.198475 -0.0728913 0.209993 -0.239682
3252 2 1.92634 11.5931 26.5073 0.182163 -0.460175 0.613322 -0.73672
3253 2 5.04227 10.5516 32.1485 0.212097 -0.172426 -0.24955 -0.262192
3254 2 9.72409 5.52515 25.9935 0.182539 -0.498906 -0.0144883 -0.502708
3255 2 1.74069 11.843 34.6961 0.203473 -0.184353 -0.314205 0.184377
3256 2 6.02522 1.57603 27.5546 0.17202 0.581993 -0.6584 -0.149822
3257 2 9.32971 7.19142 25.091 0.197959 -0.161789 0.48891 -0.0383981
3258 2 10.7084 6.5611 32.8689 0.182654 -0.307072 -1.00295 1.21591
3259 2 1.8567 7.03134 37.2592 0.188862 0.589379 -0.553217 -0.27003
3260 2 1.07789 9.17682 35.4788 0.183299 -2.46672 -0.875269 -1.31705
3261 2 10.1914 12.3775 33.0473 0.190806 0.82377 0.198331 -0.0242073
3262 2 0.913152 2.56252 28.1698 0.174216 0.926009 -1.0147 2.55393
3263 2 9.34328 2.99805 29.0631 0.202908 0.597022 0.689871 -0.324483
3264 2 1.10722 10.0904 32.085 0.212685 0.760527 0.758459 -0.285186
3265 1 24.274 2.55869 27.0726 -0.415457 0.69651 0.703791 -0.547509
3266 1 17.8049 5.99802 26.7012 -0.356928 0.688835 0.131482 -0.355205
3267 1 24.6158 7.33944 27.6001 -0.365201 -0.352083 0.247686 -2.20151
3268 1 15.8267 4.27713 29.7265 -0.400274 1.27187 -0.388294 -0.777458
3269 1 16.9883 11.729 36.7893 -0.353605 1.8547 0.489824 0.03083
3270 1 19.7848 0.177744 27.0668 -0.37493 -0.102043 1.23833 -1.32669
3271 1 18.1736 9.89754 35.1982 -0.424051 0.177046 -0.111246 0.537205
3272 1 17.7656 11.1911 26.7188 -0.358955 -0.216472 -0.498065 -0.336591
3273 1 21.8331 11.1381 25.9895 -0.387552 0.514244 -1.69848 -1.43547
3274 1 24.5026 0.641385 33.8083 -0.433642 1.28177 -0.006371 -1.915
3275 1 17.454 7.72097 36.6315 -0.330987 1.52988 -0.088385 -0.818668
3276 1 16.0825 3.18847 25.9714 -0.330071 0.383617 1.30761 0.0326837
3277 1 24.3241 10.8973 29.5892 -0.3955 0.110513 1.11282 -3.45597
3278 1 16.3255 8.04938 27.3995 -0.464692 -0.452226 0.940965 0.519061
3279 1 22.2676 9.1577 35.0688 -0.36272 -0.291448 1.70967 0.51415
3280 1 23.4455 5.31104 30.0564 -0.321109 0.227849 -0.109103 2.07597
3281 1 13.4182 4.12299 25.7303 -0.353728 0.620007 0.60662 -0.847456
3282 1 13.6868 5.99122 29.6464 -0.376463 0.603303 0.699994 -0.548596
3283 1 22.5478 9.08886 28.2063 -0.353029 0.687046 0.913991 -2.30631
3284 1 20.8331 5.72261 35.2774 -0.368719 0.680802 -1.21225 -2.24057
3285 1 20.5089 4.71999 26.1894 -0.367006 0.860551 -2.89512 -0.268885
3286 1 15.6729 3.33552 33.1521 -0.400701 2.24488 0.13223 -0.0724071
3287 1 17.4601 6.20443 32.1768 -0.405702 -0.339002 0.376895 0.216021
3288 1 16.384 10.551 28.8407 -0.39691 0.475332 -0.194102 -0.108391
3289 1 18.6958 4.56137 29.0981 -0.376386 -0.169728 -0.0743265 0.137846
3290 1 24.6266 2.34976 35.9983 -0.380358 -0.879171 -0.819351 1.18136
3291 1 19.2058 8.56774 28.9606 -0.403378 -0.991322 -0.634599 -0.315725
3292 1 18.3138 5.84141 34.6812 -0.349618 -1.58179 0.768115 -0.280787
3293 1 14.6234 6.90783 31.876 -0.404603 -1.12003 1.16862 1.99845
3294 1 23.3342 7.68963 31.6678 -0.349282 0.703832 0.811307 0.0584415
3295 1 20.4793 4.28263 31.4629 -0.329984 0.0598535 -0.162146 -0.385677
3296 1 17.7326 1.91878 36.4464 -0.422328 -0.822363 0.767654 0.579002
3297 1 13.9752 12.1595 28.3402 -0.409489 0.867194 -1.18691 0.550265
3298 1 14.4833 5.49171 34.5984 -0.307269 -0.885562 0.750079 -1.77788
3299 1 19.0999 9.05109 26.0984 -0.337266 -1.67269 -0.993806 -0.505521
3300 1 24.1967 6.18108 35.8969 -0.378602 -0.356942 -0.224789 0.298708
3301 1 18.5576 3.06985 32.849 -0.385245 0.515348 -0.688913 -1.39586
3302 1 20.6661 1.37919 34.319 -0.394957 -0.799492 0.27678 -0.334082
3303 1 13.7567 2.01522 31.9794 -0.378944 0.773302 -0.0835792 1.36793
3304 1 21.9241 2.10914 30.8077 -0.386035 -0.304635 -1.88319 1.48076
3305 1 21.7715 3.33715 35.8591 -0.417551 0.531129 0.105458 -0.103468
3306 1 13.7561 8.49079 25.6987 -0.391536 -0.531241 -0.817611 0.56466
3307 1 23.6947 3.48323 32.3999 -0.361572 -1.73499 0.520292 -0.720723
3308 1 24.1466 0.328704 25.4905 -0.374147 -1.59541 0.0221179 0.933278
3309 1 20.0754 2.03913 25.1685 -0.389768 -0.0801991 0.39371 1.34277
3310 1 21.3049 9.5184 32.2882 -0.387301 -0.0424945 0.840672 -1.18833
3311 1 14.4519 11.5408 31.7803 -0.411021 0.658713 -0.362293 0.135816
3312 1 20.4641 11.2708 29.5495 -0.388026 -1.2236 -0.986789 -0.33801
3313 1 18.2598 9.17848 32.5987 -0.321236 -1.38635 -0.223243 0.703145
3314 1 20.553 11.192 36.1093 -0.341654 0.489121 1.37917 -0.562026
3315 1 18.3843 0.839963 30.798 -0.432394 0.416075 0.193671 0.0124741
3316 1 14.327 11.6572 25.5271 -0.445327 -0.0205497 -0.683571 1.123
3317 1 17.1027 11.2821 31.619 -0.350056 -0.294092 -0.586725 -1.24965
3318 1 22.7665 6.25949 25.7812 -0.324917 1.04026 -1.07863 1.49402
3319 1 14.4534 11.0735 35.2206 -0.381306 -0.416397 0.874105 0.503748
3320 1 17.8047 2.0613 28.0259 -0.368635 -1.43618 1.26561 -0.769348
3321 1 21.0021 7.59031 37.0557 -0.421521 -0.20109 0.0881692 0.268442
3322 1 22.9564 5.81066 33.5522 -0.395771 0.563021 1.40305 0.029345
3323 1 14.8132 6.2284 36.9902 -0.416951 -0.243259 0.626562 1.05413
3324 1 12.7467 8.77204 34.938 -0.378629 1.51768 0.328952 1.75644
3325 1 21.9181 12.1279 32.4582 -0.327382 -1.6702 0.188973 0.799665
3326 1 13.852 2.32036 29.0578 -0.410288 -0.39516 1.11447 -1.27231
3327 1 22.1369 3.69374 28.4495 -0.3861 -0.59845 -0.56889 -0.0364454
3328 1 13.195 9.21993 32.2772 -0.38684 -0.138945 -2.23122 0.392395
3329 2 23.5464 2.87259 27.6284 0.1915 -0.123585 0.345873 0.0271653
3330 2 17.9611 5.50492 27.5047 0.19139 0.0928267 -0.36862 0.607584
3331 2 12.6786 6.79577 28.1892 0.201658 0.578718 -0.255621 0.936756
3332 2 16.7365 4.19855 29.3375 0.177427 -1.09256 0.483033 0.739912
3333 2 16.0869 11.5535 36.6489 0.195794 -2.37185 -0.326005 -0.182763
3334 2 18.9915 12.055 26.8794 0.175637 -0.219469 -0.11376 -0.0553658
3335 2 17.8164 9.12918 35.7374 0.191441 0.382152 0.405395 -0.944985
3336 2 18.1838 10.303 26.5281 0.182059 -0.0565552 0.475589 0.116294
3337 2 21.1444 11.0599 25.2866 0.175692 0.872068 0.0608677 -0.173897
3338 2 12.7211 1.0389 33.1555 0.172217 -1.34369 -1.05208 0.712218
3339 2 17.8915 7.0771 36.0268 0.180005 0.218045 0.414113 0.184668
3340 2 16.2886 4.1678 25.9522 0.194168 -0.472155 -1.61371 0.00326381
3341 2 23.9967 10.1931 29.0166 0.193337 -0.225648 0.0309488 0.113896
3342 2 15.4467 8.18368 27.031 0.187512 0.166782 -0.171484 -0.12512
3343 2 21.9765 10.0409 35.4435 0.183963 0.0414823 -1.16438 -0.575729
3344 2 23.629 4.84143 30.9418 0.168782 -0.472244 0.487959 -1.66309
3345 2 13.1256 3.74723 37.333 0.178718 -0.267398 -0.493502 -0.340313
3346 2 12.8868 5.50959 29.7687 0.190849 -1.2431 -0.661319 0.225171
3347 2 21.9514 9.46873 28.8409 0.198352 -0.442425 0.279176 0.280766
3348 2 21.526 5.8811 34.5717 0.186233 -0.795186 -0.0431138 0.612385
3349 2 20.3591 3.83547 25.6905 0.158101 -0.303661 1.88853 0.391167
3350 2 16.6757 3.23351 33.1005 0.188347 -1.45883 -0.0181082 -0.0200162
3351 2 17.7156 5.88789 33.0768 0.183491 0.167263 0.120901 -0.471745
3352 2 16.8904 10.8997 28.0336 0.185906 -0.379283 -0.556789 0.662508
3353 2 19.3766 4.56995 29.7846 0.197782 -0.0376663 0.219818 -0.048016
3354 2 24.3135 1.61392 36.6394 0.176701 0.698435 1.17248 -1.00622
3355 2 19.2289 8.54584 27.988 0.176305 0.163036 0.223167 0.0940214
3356 2 18.0612 4.99108 35.0142 0.220109 -0.0107648 -0.719348 0.279029
3357 2 15.5191 6.66023 31.8781 0.194653 2.20751 -0.376086 0.115463
3358 2 24.1691 8.22577 31.7457 0.189758 -0.481205 -0.596305 -0.0123863
3359 2 20.8396 3.44938 31.0748 0.18144 0.334664 0.0796029 0.340567
3360 2 17.0977 2.37198 37.0544 0.183807 0.668926 -0.0766035 -0.461177
3361 2 13.1804 11.6896 28.74 0.19327 1.25902 0.47031 -0.124565
3362 2 13.5399 5.28467 34.6135 0.198202 -0.0333674 -0.51077 0.446859
3363 2 19.9816 9.11413 25.7268 0.193708 -0.017926 -0.54971 -0.306633
3364 2 23.7906 6.20422 36.7998 0.189723 0.109918 -0.0868896 -0.630318
3365 2 18.2996 2.21216 32.4316 0.185855 0.407436 0.811291 0.171516
3366 2 21.2507 1.99145 34.7857 0.184896 0.309952 0.228542 0.151699
3367 2 14.6049 2.42373 32.3504 0.203767 -0.900379 -0.0832497 -0.249353
3368 2 22.5539 2.52296 31.4412 0.179749 -0.0507629 -0.175081 -0.403867
3369 2 21.5122 4.28864 35.7932 0.184919 -0.244991 -0.592846 0.0301737
3370 2 13.0771 8.13673 26.3458 0.197991 0.73464 0.700728 -0.499825
3371 2 23.5596 4.19812 33.0305 0.20217 -0.178888 0.504898 0.400744
3372 2 23.4746 12.0439 25.4745 0.196245 0.47292 0.832687 0.0204578
3373 2 19.2843 1.84285 37.0783 0.18835 -0.51605 0.155172 0.102775
3374 2 21.5715 10.4635 32.1399 0.183238 -0.273148 -0.367734 -0.345793
3375 2 14.2095 12.4445 31.6924 0.184447 -1.19457 1.29147 -0.0793164
3376 2 19.8241 11.8852 29.9557 0.178797 0.329483 -0.261985 0.0233439
3377 2 18.0342 8.27617 32.3306 0.218186 0.177124 -0.142665 -0.0566523
3378 2 20.5846 12.1205 35.74 0.195417 -0.208233 -1.26248 0.498641
3379 2 17.9348 0.0660094 31.2143 0.189543 0.00755192 0.250046 -0.0219546
3380 2 13.4382 11.992 25.3052 0.186408 0.358753 0.0303341 0.433889
3381 2 16.9865 10.9502 30.6778 0.182181 -0.0420981 0.188891 0.947785
3382 2 23.395 6.29198 26.5488 0.200094 -0.337772 0.569115 -0.838151
3383 2 14.9656 10.5528 34.6363 0.215464 0.822549 -0.567184 -0.978359
3384 2 17.1771 2.41092 27.3179 0.184597 0.686027 -0.498512 1.08444
3385 2 21.2863 8.27662 36.4448 0.183539 0.531753 0.0146302 -0.183058
3386 2 23.3345 6.05371 34.4676 0.177621 -0.0535655 -0.367384 -1.19892
3387 2 14.5923 5.99914 36.0681 0.182264 0.218912 0.093634 -0.212218
3388 2 12.9328 9.04632 34.0317 0.174773 -0.03643 0.0677085 -0.567965
3389 2 21.1346 12.3446 33.0428 0.197314 1.07415 0.0646444 -0.91116
3390 2 14.2047 1.42194 28.96 0.19085 -0.557418 -0.2288 -0.472794
3391 2 22.4988 4.43368 28.9844 0.193594 -0.0218832 -0.471708 0.219469
3392 2 13.8962 8.50556 32.2019 0.197013 -0.600343 0.834253 -0.234923
3393 2 24.6912 3.32394 26.5684 0.205415 -0.659567 -0.946975 0.778641
3394 2 18.7184 6.22383 26.4458 0.19281 -0.544297 -0.286779 -0.206446
3395 2 23.9456 7.85214 28.0337 0.211912 -0.743942 0.547472 0.706401
3396 2 15.4075 3.4328 29.4991 0.180277 -0.431784 0.0478775 0.0363061
3397 2 17.4875 11.1578 36.1824 0.203062 -0.0696699 -0.0997846 -0.282381
3398 2 20.0491 12.3786 27.9131 0.18591 0.856092 -0.689556 2.56139
3399 2 18.3793 9.67603 34.2601 0.201309 -0.628837 -0.398984 0.704063
3400 2 17.3678 11.4611 25.8387 0.190979 0.00215869 -0.0585647 0.276407
3401 2 21.3666 11.6785 26.5794 0.181883 -0.909861 1.50203 1.60094
3402 2 24.5167 1.35437 34.4283 0.172469 -0.389887 0.637195 1.50655
3403 2 16.6234 7.281 36.6943 0.188179 -1.70118 -0.294412 0.706184
3404 2 15.1101 3.08712 25.9475 0.19692 0.441967 0.382144 0.0491797
3405 2 24.3299 10.5848 30.4369 0.214497 0.102373 -1.09163 3.2352
3406 2 16.7251 7.24767 27.0526 0.190213 0.213838 -0.474794 -0.264377
3407 2 23.2342 9.21386 35.082 0.192116 0.243541 -0.287202 -0.0346549
3408 2 23.1232 6.19592 30.3304 0.19935 0.359178 -0.34614 -0.0824401
3409 2 13.9534 4.90604 25.4243 0.188392 -0.353821 -0.161567 0.42055
3410 2 14.3962 5.35496 29.4797 0.201667 0.549262 -0.230752 -0.0960372
3411 2 22.4814 9.64922 27.3533 0.194235 -0.198236 -1.03047 1.81596
3412 2 20.8494 6.41763 35.9226 0.184249 0.204523 1.36027 1.26061
3413 2 21.0221 4.29154 26.9168 0.170317 -0.510731 0.779551 0.234779
3414 2 15.5744 4.28439 33.3045 0.183263 -0.460714 -0.371672 0.130871
3415 2 17.5755 5.5203 31.514 0.197924 0.0940805 -0.0839501 0.17162
3416 2 16.4243 9.56992 28.7762 0.197814 -0.167103 0.900783 -0.31667
3417 2 18.6138 3.64553 28.7991 0.18384 0.0451596 -0.271173 -0.188065
3418 2 23.848 2.91761 35.8716 0.185867 -0.00301976 -0.248973 0.106333
3419 2 18.4126 8.0159 29.1423 0.206644 0.932922 0.658612 0.101751
3420 2 19.2677 5.90181 34.7307 0.199586 1.35072 -0.360298 0.191658
3421 2 14.269 6.60753 31.0513 0.190421 -0.857965 -0.537657 -1.47199
3422 2 22.64 8.37406 31.7658 0.18396 -0.324859 -0.218878 -0.0408114
3423 2 21.1864 4.66375 32.0016 0.198053 -0.346182 -0.0902245 -0.124125
3424 2 17.2832 1.08821 36.2826 0.194698 0.118529 -0.593756 -0.101841
3425 2 14.8347 11.6963 28.5931 0.186722 -1.68457 0.268551 -0.092658
3426 2 14.4588 6.09263 33.8141 0.194464 0.521774 -0.182397 0.502092
3427 2 18.4829 8.48556 25.5064 0.187201 1.48777 0.901819 0.864833
3428 2 24.56 7.04685 35.6993 0.183048 0.262352 0.565811 0.0357762
3429 2 19.2479 3.46206 32.1987 0.175474 -1.11303 -0.267325 1.40208
3430 2 19.9733 1.99269 33.9878 0.172307 0.261666 -0.658269 0.190856
3431 2 13.6997 2.25823 31.0682 0.198363 -0.105461 0.221376 -1.35293
3432 2 21.7581 1.18498 31.2443 0.175497 0.384015 2.00828 -1.11428
3433 2 21.2864 2.90444 36.5758 0.19015 -0.109557 0.0288582 0.151854
3434 2 13.8387 9.44746 25.7476 0.201413 -0.156449 0.241337 -0.0533221
3435 2 24.5879 3.22341 32.3885 0.196412 1.93141 -0.78993 0.0699997
3436 2 23.8333 0.94446 26.2327 0.189996 1.03238 -0.843386 -1.29147
3437 2 19.8781 1.82186 26.1289 0.192255 0.542546 -0.294504 -1.96395
3438 2 21.6021 9.43186 33.1761 0.175334 0.279525 -0.653783 1.71002
3439 2 15.4183 11.6626 31.7547 0.188025 0.176161 -0.955364 0.167255
3440 2 19.952 10.4344 29.3543 0.184207 0.554595 1.1496 0.433008
3441 2 19.1315 9.40597 32.3471 0.204887 1.90803 -0.131295 -0.703437
3442 2 19.7401 10.7705 35.8113 0.190818 -0.464713 -0.123287 -0.251432
3443 2 17.8855 1.06256 30.01 0.198047 -0.0310422 0.224204 -0.194177
3444 2 14.3628 11.5706 26.5194 0.177882 -0.384385 0.697275 -1.29871
3445 2 17.4904 10.542 32.1374 0.210914 -0.250206 -0.105459 -0.295352
3446 2 22.1736 5.50906 26.004 0.181902 -0.300054 0.3286 -0.606058
3447 2 14.1834 11.8479 34.7054 0.202893 -0.196487 -0.307422 0.224308
3448 2 18.4614 1.57748 27.5403 0.171777 0.609071 -0.67436 -0.149583
3449 2 21.7968 7.196 25.0879 0.197686 -0.61889 0.614803 -0.228185
3450 2 23.1619 6.56 32.8605 0.182817 -0.359696 -1.07305 1.32351
3451 2 14.2985 7.02726 37.2564 0.188392 0.525968 -0.372232 -0.105978
3452 2 13.52 9.15431 35.4754 0.187662 -2.05527 -0.611868 -1.03227
3453 2 22.64 12.3889 33.0336 0.190957 0.891977 0.210317 0.0755958
3454 2 13.3552 2.55267 28.1881 0.177228 0.730164 -0.941503 2.04149
3455 2 21.7832 3.00126 29.0569 0.203307 0.631737 0.696402 -0.34107
3456 2 13.5513 10.0831 32.0991 0.213365 0.863104 1.13368 -0.378684
3457 1 11.8335 15.0091 27.071 -0.41336 0.132966 0.220005 0.0274076
3458 1 5.36215 18.4465 26.7019 -0.359306 -0.474966 0.663439 -1.30941
3459 1 12.1714 19.7847 27.5975 -0.377106 0.0873638 -0.231053 -1.61054
3460 1 3.3826 16.7239 29.7319 -0.40199 0.351558 -0.745867 -0.54035
3461 1 4.5423 24.176 36.7869 -0.357617 0.205555 0.896424 0.547973
3462 1 7.33875 12.622 27.0679 -0.375313 -0.185245 1.02161 -1.08457
3463 1 5.72839 22.3465 35.1976 -0.424701 0.208706 0.228842 0.744622
3464 1 5.32118 23.634 26.7184 -0.344804 0.226649 -0.636073 0.59965
3465 1 9.39151 23.5875 25.9897 -0.389143 0.847347 -1.43833 -0.836738
3466 1 12.0586 13.0851 33.8115 -0.432071 1.69056 0.499429 -2.05029
3467 1 5.01315 20.1636 36.6285 -0.332329 0.0210465 0.0386324 -0.0774792
3468 1 3.64224 15.6342 25.9665 -0.331177 0.451899 1.5658 0.0171839
3469 1 11.8784 23.3473 29.5908 -0.389236 -0.030316 0.827364 -3.50922
3470 1 3.87829 20.4954 27.3982 -0.46793 -0.217268 0.273047 0.204188
3471 1 9.81825 21.6029 35.0731 -0.360407 0.702239 1.09825 0.186394
3472 1 11.0002 17.7531 30.058 -0.319014 0.128747 0.0334052 1.46867
3473 1 0.968834 16.5679 25.727 -0.356272 0.885316 0.915325 -0.15797
3474 1 1.24005 18.4345 29.6468 -0.371556 -0.0319908 1.03223 -0.368253
3475 1 10.0964 21.534 28.2085 -0.352972 1.02454 0.395168 -2.20975
3476 1 8.38702 18.1642 35.2827 -0.370019 1.07713 -0.848913 -2.43038
3477 1 8.06201 17.1645 26.1909 -0.3694 0.713387 -2.98505 -0.503463
3478 1 3.22935 15.7856 33.1485 -0.402364 2.07795 -0.692075 -0.199856
3479 1 5.01884 18.6562 32.1803 -0.413899 -0.372512 0.122142 -0.441128
3480 1 3.94425 22.9952 28.837 -0.404358 0.489007 0.409512 -0.127562
3481 1 6.24775 17.006 29.0996 -0.384056 -0.316755 -0.526539 -0.1297
3482 1 12.1783 14.7954 35.9977 -0.3821 -0.893304 -0.480183 0.914019
3483 1 6.76471 21.0132 28.9604 -0.406411 -0.538966 -0.35595 -1.00616
3484 1 5.86812 18.2851 34.6823 -0.354037 -1.50974 0.521613 -0.221747
3485 1 2.18271 19.3562 31.8832 -0.402035 -0.68679 0.710682 1.38009
3486 1 10.8873 20.1343 31.6676 -0.349839 0.990788 0.285412 0.01153
3487 1 8.03176 16.7247 31.4599 -0.331427 0.417314 0.252097 0.0118068
3488 1 5.29214 14.3642 36.4487 -0.419139 -0.857024 0.590722 0.4598
3489 1 1.53259 24.6053 28.3371 -0.405908 0.137182 -0.955519 0.591246
3490 1 2.04015 17.9339 34.6003 -0.305336 -0.553483 1.01248 -1.99561
3491 1 6.65864 21.4943 26.0992 -0.333889 -1.38886 -0.752662 -0.253129
3492 1 11.7499 18.6234 35.8996 -0.379234 -0.0703445 -0.105177 -0.179446
3493 1 6.11294 15.5159 32.849 -0.384752 0.187941 -1.34994 -1.51201
3494 1 8.21878 13.8263 34.3215 -0.394882 -0.722852 0.828611 -0.232373
3495 1 1.30905 14.4601 31.98 -0.376484 1.05882 0.261769 0.950914
3496 1 9.47976 14.5549 30.8103 -0.388277 -0.193764 -1.46015 1.2522
3497 1 9.33029 15.7843 35.8585 -0.4153 0.617473 0.177929 -0.269328
3498 1 1.31133 20.9338 25.6979 -0.384461 -0.47019 -1.96922 0.336896
3499 1 11.2504 15.9236 32.4018 -0.364317 -2.66798 0.910639 -0.580979
3500 1 11.7018 12.7756 25.4843 -0.374184 -1.93956 0.0792617 1.23812
3501 1 7.63006 14.4839 25.1742 -0.389693 0.295069 0.540984 1.09134
3502 1 8.85798 21.9646 32.2878 -0.386575 -0.0894095 0.263958 -0.729922
3503 1 2.00992 23.9897 31.7782 -0.406877 0.263953 -0.820396 0.187245
3504 1 8.01992 23.7164 29.5487 -0.387896 -1.06771 -1.20759 -0.425518
3505 1 5.81719 21.6248 32.5985 -0.32444 -1.26368 0.539441 0.959034
3506 1 8.11328 23.6379 36.1086 -0.351264 0.297579 1.06435 -0.513948
3507 1 5.94188 13.2889 30.8044 -0.425131 0.0673466 0.0945705 -0.256363
3508 1 1.87655 24.1065 25.5284 -0.452014 0.298468 -0.787557 0.913383
3509 1 4.66197 23.7227 31.6192 -0.354012 -0.228899 -0.419883 -0.788439
3510 1 10.3222 18.7017 25.7771 -0.325576 1.01879 -0.736092 1.1553
3511 1 2.00883 23.5177 35.2196 -0.379166 -0.40151 0.896967 0.437135
3512 1 5.36184 14.5027 28.0293 -0.36669 -1.40761 1.26765 -0.635529
3513 1 8.56238 20.034 37.0566 -0.42001 -0.485633 -0.0943738 0.402813
3514 1 10.5113 18.2512 33.5495 -0.387885 0.499368 1.49181 -0.0259982
3515 1 2.37067 18.6765 36.9918 -0.413263 -0.160226 0.407649 0.801706
3516 1 0.301527 21.2169 34.9365 -0.38095 1.49781 0.513808 0.918006
3517 1 9.46914 24.5748 32.4614 -0.328709 -1.46256 0.11308 0.601708
3518 1 1.40918 14.7612 29.0588 -0.40646 -0.901261 2.27163 -1.4306
3519 1 9.69149 16.1364 28.4501 -0.384376 -0.402623 -0.19021 0.0244833
3520 1 0.750498 21.6641 32.2774 -0.388517 0.00184095 -1.40803 0.305831
3521 2 11.0952 15.3147 27.6335 0.19272 0.200294 0.285935 -0.224773
3522 2 5.49773 17.9512 27.4781 0.197349 0.375997 -1.08777 1.7464
3523 2 0.239605 19.2378 28.1806 0.201295 0.599908 -0.273345 0.902158
3524 2 4.27715 16.6347 29.3581 0.180045 -0.329785 0.450143 0.411554
3525 2 3.62135 24.0015 36.6407 0.194794 -1.2248 -0.137506 -0.0173381
3526 2 6.53092 24.4988 26.8819 0.173945 0.153525 0.135661 0.00241407
3527 2 5.36544 21.5949 35.7398 0.193083 0.301051 0.130407 -0.836799
3528 2 5.74776 22.7551 26.5236 0.184901 -0.0100511 0.29033 0.0806983
3529 2 8.72355 23.5258 25.2869 0.17782 0.379452 -0.0314743 -0.622857
3530 2 0.275155 13.4833 33.1517 0.174199 -1.27766 -1.00132 0.647263
3531 2 5.45833 19.5374 36.0465 0.182478 0.557143 -0.204271 -0.363098
3532 2 3.83746 16.6198 25.9393 0.192434 -0.436951 -1.77665 0.0335564
3533 2 11.5464 22.6291 29.0291 0.191981 -0.119214 0.245488 0.192501
3534 2 2.99397 20.6181 27.0359 0.185633 0.23931 -0.154743 -0.0853191
3535 2 9.55175 22.4744 35.4388 0.186048 -0.287567 -0.462138 -0.258615
3536 2 11.1629 17.2925 30.9272 0.17157 -0.250559 0.0639605 -1.04087
3537 2 0.681249 16.2091 37.3405 0.17954 -0.50055 -0.797545 -0.791791
3538 2 0.435769 17.9529 29.7592 0.191434 -1.19336 -0.537483 0.232046
3539 2 9.51983 21.9206 28.8409 0.200225 -0.833797 0.499728 0.750049
3540 2 9.09108 18.3256 34.5649 0.183199 -1.16938 -0.169537 1.00732
3541 2 7.91229 16.2772 25.6884 0.157031 -0.32125 1.9988 0.417979
3542 2 4.22709 15.6635 33.1065 0.192363 -1.3702 0.167607 -0.0212164
3543 2 5.26248 18.3535 33.0897 0.186423 0.238722 -0.0848761 -0.57601
3544 2 4.45004 23.3332 28.025 0.185702 -0.431993 -0.484492 0.74052
3545 2 6.9372 17.0248 29.774 0.197802 0.023419 0.148403 0.0134364
3546 2 11.881 14.0553 36.6242 0.17799 0.546445 0.963762 -0.78848
3547 2 6.79742 20.9778 27.9744 0.174695 0.112139 0.249174 0.728132
3548 2 5.6202 17.4254 35.011 0.219827 0.122936 -0.424926 0.159361
3549 2 3.09086 19.1097 31.8629 0.191375 1.57938 -0.163301 0.185329
3550 2 11.7278 20.6577 31.7501 0.191436 -0.509737 -0.468868 -0.009834
3551 2 8.39873 15.8986 31.0711 0.182212 0.391498 -0.00884781 0.341059
3552 2 4.6484 14.819 37.0447 0.185245 0.632946 -0.14051 -0.42728
3553 2 0.74913 24.1393 28.7688 0.192196 1.20501 0.540553 -0.296208
3554 2 1.10186 17.7369 34.611 0.198818 -0.399743 -0.607958 0.501332
3555 2 7.53441 21.5634 25.7174 0.193901 0.0716475 -0.509884 -0.297696
3556 2 11.3716 18.6412 36.801 0.19137 -0.114241 -0.0597806 -0.229797
3557 2 5.83868 14.6535 32.4133 0.183144 0.623721 1.32007 0.449554
3558 2 8.80894 14.4633 34.772 0.181781 0.0274078 -0.12724 -0.0557281
3559 2 2.16928 14.8825 32.3345 0.200732 -1.13789 -0.235745 -0.203968
3560 2 10.109 14.9782 31.4387 0.180799 -0.0633089 -0.23115 -0.386364
3561 2 9.06002 16.7342 35.8007 0.185453 -0.236907 -0.594763 0.0164483
3562 2 0.641735 20.5869 26.345 0.200286 0.504109 0.571582 -0.327789
3563 2 11.121 16.6365 33.039 0.202524 -0.209813 0.408777 0.295586
3564 2 11.0307 24.4859 25.4576 0.196714 0.628423 1.03702 0.108595
3565 2 6.82487 14.287 37.0828 0.186705 -0.199095 0.250552 0.214465
3566 2 9.12802 22.8937 32.1437 0.184687 -0.134273 0.176781 -0.478459
3567 2 1.75193 24.8822 31.6882 0.187214 -1.2714 1.63785 -0.122001
3568 2 7.3784 24.3207 29.9471 0.179557 0.136011 0.0762642 0.21119
3569 2 5.58385 20.7417 32.3279 0.219629 0.0283736 -0.862533 -0.284933
3570 2 8.1519 24.5645 35.747 0.196297 -0.289988 -1.14764 0.406301
3571 2 5.47789 12.5115 31.213 0.188841 0.138549 0.375211 -0.0660298
3572 2 0.991464 24.4262 25.2993 0.188686 0.0966239 0.156681 0.407838
3573 2 4.53571 23.3995 30.6842 0.18511 0.0172564 -0.0189121 0.771188
3574 2 10.9386 18.7381 26.5399 0.200921 0.0189431 0.623689 -0.498098
3575 2 2.52394 23.0007 34.6317 0.215487 0.758075 -0.486761 -0.930363
3576 2 4.74222 14.8465 27.317 0.186133 0.612185 -0.450225 1.00525
3577 2 8.8345 20.7122 36.4427 0.186386 0.658054 0.283842 -0.391168
3578 2 10.8893 18.512 34.4559 0.178352 -0.0598326 -0.428599 -1.10093
3579 2 2.16868 18.4458 36.0603 0.182533 0.210006 0.125406 -0.0394604
3580 2 0.490899 21.5044 34.0142 0.171606 -0.187273 -0.179382 0.195594
3581 2 8.68481 24.7815 33.0344 0.198388 0.825958 0.128259 -0.735253
3582 2 1.76355 13.8881 28.9575 0.194438 -0.15188 -1.23219 -0.575354
3583 2 10.0484 16.8849 28.9879 0.192601 -0.0867146 -0.641844 0.0283487
3584 2 1.43914 20.9401 32.2087 0.197716 -0.459744 0.823943 -0.278104
3585 2 12.2475 15.7564 26.5723 0.207057 -0.460845 -0.401208 0.47376
3586 2 6.25235 18.6653 26.4319 0.199179 0.329847 -0.102079 -0.371725
3587 2 11.496 20.294 28.0275 0.209983 -0.69996 0.496652 0.718782
3588 2 2.95723 15.871 29.5093 0.178796 -0.269762 0.417428 0.126705
3589 2 5.03725 23.6137 36.2035 0.203172 0.426517 -0.672354 -0.933717
3590 2 7.58707 24.8258 27.9114 0.186215 1.02415 -0.818107 3.148
3591 2 5.92271 22.1266 34.2665 0.202384 -0.535288 -0.516053 0.389233
3592 2 4.93784 23.908 25.868 0.194872 -0.47917 0.22899 -0.653758
3593 2 8.91592 24.1146 26.5912 0.18162 -0.792581 1.32569 1.44598
3594 2 12.078 13.8139 34.4226 0.169878 -0.430287 0.37006 1.32631
3595 2 4.16031 19.7156 36.6916 0.184797 -0.56779 0.207645 0.569162
3596 2 2.6726 15.5361 25.9384 0.195605 0.327133 0.30201 0.052179
3597 2 11.8921 23.0345 30.4397 0.213679 0.153247 -1.01558 3.18378
3598 2 4.27695 19.6716 27.0551 0.187829 -0.0578357 0.189365 -0.00216202
3599 2 10.7993 21.6643 35.0712 0.190244 -0.394476 -0.401351 -0.035491
3600 2 10.6884 18.6319 30.3416 0.199915 0.235767 -0.0345446 -0.111899
3601 2 1.51052 17.3531 25.4347 0.189943 -0.408885 -0.214188 0.358396
3602 2 1.93272 17.7969 29.5057 0.202616 1.14344 -0.6826 -0.267136
3603 2 10.0204 22.0839 27.3715 0.196312 -0.151068 -0.730268 1.26921
3604 2 8.41439 18.864 35.9322 0.182231 0.173536 1.10067 1.03836
3605 2 8.57159 16.7251 26.9075 0.17047 -0.37966 0.760366 0.431021
3606 2 3.11424 16.7194 33.2987 0.187172 -0.393908 0.288729 0.230145
3607 2 5.13323 17.9882 31.4782 0.200404 0.0662991 0.349566 0.935461
3608 2 3.97888 22.0294 28.7728 0.198818 -0.158933 0.204366 -0.304341
3609 2 6.16546 16.081 28.7898 0.181872 0.115857 0.247311 0.0378479
3610 2 11.3912 15.36 35.8755 0.185942 0.154128 -0.381454 0.150738
3611 2 5.97255 20.4814 29.1455 0.20775 0.524609 0.365475 0.165439
3612 2 6.82558 18.3565 34.7225 0.199451 1.14277 -0.415491 0.214003
3613 2 1.82334 19.0346 31.0543 0.187251 -0.698502 -0.291231 -0.904218
3614 2 10.1924 20.8009 31.7662 0.186885 -0.590444 0.195365 -0.00148973
3615 2 8.73265 17.1208 32.0187 0.197089 -0.749223 -0.398456 -0.502586
3616 2 4.85301 13.5267 36.2671 0.195611 0.173964 -0.363107 0.00321318
3617 2 2.37121 24.1581 28.6046 0.187285 -0.945731 -0.0197863 0.0133616
3618 2 2.0151 18.5463 33.8166 0.193845 0.581358 -0.335603 0.669563
3619 2 6.05836 20.9319 25.5141 0.188036 1.1204 0.671693 0.623289
3620 2 12.1131 19.4906 35.6972 0.183401 0.227025 0.454884 0.085078
3621 2 6.80757 15.8963 32.2077 0.174763 -1.00898 -0.147451 1.22988
3622 2 7.51902 14.4388 33.9808 0.16974 0.459179 -0.861723 0.291127
3623 2 1.25407 14.7055 31.0607 0.196181 -0.138165 0.0510426 -0.945664
3624 2 9.32432 13.6399 31.2351 0.178592 0.294894 1.63986 -0.900907
3625 2 8.83704 15.3337 36.5527 0.191674 -0.194875 -0.0299732 0.337369
3626 2 1.38998 21.868 25.741 0.206189 -0.0180045 1.48842 -0.0116256
3627 2 12.1287 15.6677 32.3952 0.19811 2.87732 -1.09965 0.0294744
3628 2 11.3832 13.3973 26.2403 0.187929 1.17801 -1.14512 -1.66744
3629 2 7.44339 14.254 26.1226 0.19451 0.421677 -0.370646 -1.56179
3630 2 9.14785 21.8776 33.1845 0.17452 0.165244 -0.638762 1.38766
3631 2 2.96557 24.1135 31.767 0.190828 0.638562 -0.854603 0.145224
3632 2 7.50121 22.8819 29.3732 0.183173 0.607336 1.0167 0.327689
3633 2 6.69223 21.8534 32.3628 0.206318 1.94626 -0.16744 -0.715801
3634 2 7.29263 23.2084 35.8256 0.190653 -0.228748 0.0878095 -0.231762
3635 2 5.44376 13.5148 30.007 0.196329 0.18297 0.150561 0.126476
3636 2 1.91709 24.017 26.5137 0.18035 -0.421367 0.683562 -1.06981
3637 2 5.0606 23.0002 32.1639 0.213442 -0.369799 -0.0406292 -0.605471
3638 2 9.7354 17.9661 26.0129 0.183235 -0.61629 -0.0772215 -0.553196
3639 2 1.73794 24.3011 34.7148 0.203322 -0.149424 -0.409465 0.251625
3640 2 6.02625 14.018 27.5577 0.172753 0.665665 -0.72015 -0.211474
3641 2 9.34253 19.6421 25.1091 0.197605 -0.50804 0.603993 -0.278203
3642 2 10.7013 19.0026 32.8553 0.182645 -0.307153 -1.09345 1.30574
3643 2 1.85128 19.4691 37.25 0.188721 0.432497 -0.213714 -0.0590798
3644 2 1.05914 21.61 35.4781 0.187195 -1.87095 -0.574848 -0.970241
3645 2 10.1809 24.8414 33.0451 0.190876 0.934681 0.229709 0.0889681
3646 2 0.922549 15.0094 28.1751 0.177719 0.820973 -1.07239 2.32363
3647 2 9.33832 15.4593 29.0655 0.201902 0.521669 0.456954 -0.231908
3648 2 1.11505 22.5416 32.0941 0.212701 0.613347 0.354892 -0.226553
3649 1 24.2731 15.0064 27.0696 -0.424253 0.58161 0.513009 -0.395718
3650 1 17.8013 18.4398 26.6994 -0.356576 0.309957 0.645044 -1.19641
3651 1 24.6155 19.7841 27.5984 -0.373103 0.256005 -0.338496 -1.66951
3652 1 15.8283 16.7212 29.7279 -0.402293 0.812758 -0.842847 -0.802311
3653 1 16.9837 24.1743 36.7903 -0.347893 0.957912 0.672141 0.265693
3654 1 19.7842 12.6252 27.067 -0.373438 -0.375082 1.2509 -1.79699
3655 1 18.1729 22.3499 35.2003 -0.425603 0.180561 -0.390039 0.171779
3656 1 17.7631 23.6327 26.717 -0.358424 0.0501831 -0.493575 0.513996
3657 1 21.835 23.5848 25.9872 -0.388181 0.409182 -1.24803 -0.813189
3658 1 24.5043 13.0841 33.8056 -0.435934 1.47961 0.0643794 -2.24432
3659 1 17.4551 20.1681 36.6319 -0.328058 1.52772 0.155806 -0.683224
3660 1 16.0851 15.638 25.9706 -0.334427 0.801737 1.32077 0.0502423
3661 1 24.3261 23.3502 29.59 -0.390891 0.227289 1.16122 -2.85892
3662 1 16.3233 20.4959 27.4013 -0.463334 -0.328129 0.541431 0.313893
3663 1 22.2637 21.6052 35.0695 -0.364649 -0.0304348 1.77622 0.523552
3664 1 23.4448 17.753 30.0597 -0.321399 0.0836418 0.135618 1.87637
3665 1 13.4173 16.5634 25.731 -0.360903 0.715539 0.851227 -0.684067
3666 1 13.6825 18.4325 29.651 -0.368755 0.305737 0.828278 -0.457628
3667 1 22.543 21.5311 28.2104 -0.355128 0.866724 0.468958 -2.07969
3668 1 20.8363 18.1627 35.2773 -0.375287 0.918939 -0.422032 -1.88867
3669 1 20.5042 17.1643 26.1912 -0.369397 0.911015 -3.25695 -0.40672
3670 1 15.675 15.7878 33.1486 -0.403477 2.11951 -0.567177 -0.181558
3671 1 17.4641 18.6533 32.1809 -0.411567 -0.319037 0.130251 -0.100765
3672 1 16.3886 22.9922 28.8391 -0.398202 0.197578 -0.125419 0.213056
3673 1 18.6922 17.0011 29.1008 -0.380151 -0.275016 -0.329074 -0.0121313
3674 1 24.6232 14.7947 35.9987 -0.386544 -0.757983 -0.812948 1.13153
3675 1 19.2068 21.0166 28.9637 -0.399753 -1.66855 -1.1294 -0.507945
3676 1 18.3141 18.2855 34.675 -0.346113 -2.21894 0.762595 -0.32529
3677 1 14.6248 19.3509 31.8766 -0.409347 -0.291246 0.416956 1.00106
3678 1 23.3348 20.1335 31.6697 -0.352227 0.648525 0.882812 0.0806844
3679 1 20.4727 16.7236 31.4616 -0.328275 0.85231 0.181724 0.150025
3680 1 17.7342 14.3659 36.4476 -0.426164 -1.15015 -0.0699091 0.292342
3681 1 13.9743 24.6076 28.3418 -0.409161 0.0353206 -1.1679 0.605864
3682 1 14.4868 17.9379 34.594 -0.311542 -0.973516 0.791117 -1.85512
3683 1 19.1029 21.4941 26.0969 -0.336666 -1.25266 -0.895573 -0.494646
3684 1 24.1923 18.6249 35.896 -0.375045 0.275769 0.272598 -0.717969
3685 1 18.5519 15.5151 32.8471 -0.388462 0.540816 -0.527135 -1.27219
3686 1 20.6613 13.8247 34.3191 -0.39239 -1.04689 0.526401 -0.435693
3687 1 13.7567 14.4642 31.9758 -0.380924 0.819242 -0.0657748 1.52167
3688 1 21.9253 14.5556 30.8098 -0.384865 -0.362431 -1.65808 1.19768
3689 1 21.777 15.7865 35.8626 -0.421424 0.424258 -0.517723 0.22373
3690 1 13.7561 20.9354 25.6992 -0.393255 -0.126158 -1.5209 0.0733773
3691 1 23.6943 15.9245 32.3999 -0.359139 -1.82999 0.828723 -0.44743
3692 1 24.1446 12.7731 25.4901 -0.381898 -1.37537 0.204369 0.98406
3693 1 20.0741 14.4865 25.1657 -0.387936 -0.107627 0.397745 1.32951
3694 1 21.3045 21.9633 32.2895 -0.384908 -0.284033 0.607539 -1.63655
3695 1 14.4586 23.9843 31.7799 -0.411047 0.299445 -0.124087 0.104953
3696 1 20.465 23.7147 29.5499 -0.385397 -1.30697 -1.66034 -0.541873
3697 1 18.2663 21.6224 32.5996 -0.321482 -1.44822 0.243488 0.924048
3698 1 20.5537 23.6362 36.1092 -0.343801 0.175243 0.520431 -0.400845
3699 1 18.3835 13.2828 30.7955 -0.431851 0.210268 0.266909 -0.344749
3700 1 14.3256 24.105 25.5301 -0.446748 0.0147491 -0.686763 0.765788
3701 1 17.1015 23.7221 31.6191 -0.355275 -0.351409 -0.402268 -1.2375
3702 1 22.7662 18.7013 25.7784 -0.327728 1.04632 -0.654883 1.02147
3703 1 14.4536 23.5158 35.2196 -0.383073 -0.834742 1.30077 0.934436
3704 1 17.8037 14.5022 28.028 -0.365597 -0.981479 1.00528 -0.497201
3705 1 21.0038 20.0322 37.0581 -0.415741 -0.551339 -0.123332 0.398518
3706 1 22.9533 18.2588 33.5497 -0.394441 0.57 1.30296 0.378346
3707 1 14.8148 18.6747 36.9896 -0.418307 -0.0435541 0.797217 1.9219
3708 1 12.7448 21.2157 34.9353 -0.377837 1.82881 0.591773 1.51339
3709 1 21.9122 24.5745 32.4613 -0.333507 -1.25996 0.0141114 0.470719
3710 1 13.8568 14.7649 29.0602 -0.407415 -0.968235 2.08812 -1.74506
3711 1 22.1386 16.1351 28.447 -0.383481 -0.405261 -0.186769 0.354314
3712 1 13.1949 21.664 32.2795 -0.391566 -0.439792 -1.41444 0.367341
3713 2 23.541 15.3061 27.6364 0.193316 0.0851779 0.409445 -0.168546
3714 2 17.9467 17.9578 27.4888 0.194992 0.251297 -0.929782 1.50666
3715 2 12.6842 19.243 28.1841 0.201593 0.574689 -0.26121 0.941992
3716 2 16.7366 16.6258 29.352 0.177649 -0.920545 0.482222 0.635292
3717 2 16.0721 23.9932 36.6565 0.194955 -1.81672 -0.183395 -0.0446213
3718 2 18.9745 24.5154 26.8806 0.175242 -0.0828456 -0.134932 0.0146453
3719 2 17.7986 21.5795 35.7375 0.189936 0.522958 0.553267 -1.04526
3720 2 18.1891 22.7483 26.5518 0.186281 -0.0530596 0.391299 -0.0957918
3721 2 21.1476 23.5251 25.2926 0.175594 0.616321 -0.0067002 -0.402242
3722 2 12.7336 13.4812 33.1631 0.170991 -1.40108 -1.1425 0.610633
3723 2 17.8997 19.5319 36.0351 0.18114 0.364635 0.262317 0.034153
3724 2 16.2802 16.6198 25.9604 0.195092 -0.505408 -1.64114 -0.0131116
3725 2 23.9889 22.6342 29.0541 0.192943 -0.34188 -0.24214 -0.311422
3726 2 15.446 20.6211 27.0257 0.185851 0.167461 -0.128138 -0.0986288
3727 2 21.9672 22.4866 35.4489 0.182873 0.052271 -1.20708 -0.600418
3728 2 23.6204 17.2731 30.9353 0.170438 -0.438383 0.517457 -1.46769
3729 2 13.1307 16.2104 37.3373 0.179457 -0.460797 -0.760627 -0.763693
3730 2 12.8753 17.9574 29.7685 0.192229 -1.14154 -0.607302 0.206537
3731 2 21.9559 21.9315 28.8305 0.199002 -0.689013 0.40982 0.578026
3732 2 21.5264 18.3418 34.5626 0.182141 -0.996228 -0.202192 0.799524
3733 2 20.3649 16.2681 25.6889 0.154958 -0.365347 2.13765 0.461081
3734 2 16.6742 15.663 33.0936 0.191385 -1.45065 0.191977 0.0150425
3735 2 17.7167 18.3413 33.091 0.185387 0.141642 0.0339214 -0.76334
3736 2 16.8771 23.3244 28.0324 0.185939 -0.148928 -0.313053 0.37048
3737 2 19.3775 17.0097 29.7797 0.197375 0.0253564 0.211456 0.0262578
3738 2 24.3312 14.0538 36.6436 0.177663 0.566541 1.20585 -1.0129
3739 2 19.2366 20.9855 27.981 0.174164 0.0699596 0.197434 0.575068
3740 2 18.0606 17.4399 35.0166 0.221409 -0.0403566 -0.770593 0.291174
3741 2 15.5464 19.1093 31.859 0.188595 0.916543 -0.0140725 0.159873
3742 2 24.1711 20.6707 31.7609 0.190297 -0.6325 -0.589209 -0.0498505
3743 2 20.8251 15.8872 31.0599 0.180898 0.362108 0.289799 0.524275
3744 2 17.0937 14.8159 37.0496 0.183756 0.605226 -0.153355 -0.450738
3745 2 13.1803 24.1217 28.7544 0.191575 1.48747 0.711182 -0.310244
3746 2 13.54 17.7465 34.5988 0.197106 -0.0583827 -0.580919 0.570442
3747 2 19.9911 21.5448 25.7252 0.193004 -0.230367 -0.529388 -0.182474
3748 2 23.8096 18.6425 36.785 0.193282 -0.277294 -0.0451231 0.211882
3749 2 18.287 14.6616 32.4345 0.187481 0.440523 0.692692 0.0700606
3750 2 21.2503 14.4426 34.7737 0.18412 0.309589 0.201486 0.155103
3751 2 14.6018 14.874 32.3648 0.20332 -0.961178 -0.0933005 -0.390157
3752 2 22.5589 14.9705 31.4326 0.18194 0.0142921 -0.122484 -0.269725
3753 2 21.5297 16.7329 35.7929 0.186483 -0.387656 -0.309247 0.0709448
3754 2 13.0949 20.5801 26.3374 0.20114 0.276797 0.560428 -0.10761
3755 2 23.578 16.6376 33.0456 0.201584 -0.231267 0.28702 0.155492
3756 2 23.4756 24.4742 25.447 0.196269 0.808851 1.30685 0.167718
3757 2 19.2908 14.299 37.0745 0.190031 -0.812718 0.0691135 -0.107826
3758 2 21.5738 22.8989 32.1372 0.18492 -0.210051 -0.0933449 -0.397532
3759 2 14.2001 24.8876 31.6721 0.184236 -1.01205 0.950833 -0.0499715
3760 2 19.8304 24.3119 29.9692 0.179357 0.118996 0.0443344 0.179803
3761 2 18.0314 20.7341 32.3302 0.219014 0.0597459 -0.636096 -0.188918
3762 2 20.5854 24.5483 35.7476 0.197674 -0.196413 -0.589224 0.223482
3763 2 17.9225 12.5067 31.1971 0.188939 0.059384 0.261059 0.0323892
3764 2 13.4365 24.4359 25.3078 0.187323 0.325566 0.0518253 0.439768
3765 2 16.977 23.3899 30.6789 0.184326 0.0382039 0.128438 1.00936
3766 2 23.3882 18.7411 26.5338 0.201078 0.0147652 0.576393 -0.406096
3767 2 14.9665 22.994 34.6527 0.219005 1.14107 -0.809597 -1.41229
3768 2 17.1974 14.844 27.3191 0.18662 0.319849 -0.296573 0.747937
3769 2 21.2867 20.7135 36.4544 0.186328 0.673237 0.326709 -0.432127
3770 2 23.3277 18.5015 34.475 0.177782 -0.121072 -0.412329 -1.40256
3771 2 14.6109 18.4333 36.0834 0.187321 -0.0653419 0.07003 -0.871554
3772 2 12.9372 21.5016 34.0259 0.172252 -0.175954 -0.0593086 -0.313709
3773 2 21.1343 24.7774 33.035 0.199079 0.705326 0.188771 -0.592902
3774 2 14.2087 13.8841 28.9649 0.193271 -0.254837 -0.974133 -0.5656
3775 2 22.4965 16.8805 28.998 0.189996 -0.11797 -0.718294 -0.126103
3776 2 13.872 20.9434 32.2118 0.199334 -0.152818 0.589668 -0.324728
3777 2 24.7094 15.7579 26.5637 0.207253 -0.769512 -0.782288 0.809188
3778 2 18.71 18.6653 26.4451 0.195653 -0.333606 -0.244254 -0.259864
3779 2 23.9485 20.2852 28.0414 0.210238 -0.875359 0.633098 0.794901
3780 2 15.3888 15.8743 29.4944 0.177375 -0.175365 0.497213 0.160844
3781 2 17.4666 23.6073 36.1847 0.203514 0.276555 -0.394091 -0.615457
3782 2 20.0464 24.8281 27.9244 0.185331 0.659438 -0.584397 2.0894
3783 2 18.383 22.1232 34.2512 0.199587 -0.755282 -0.30658 1.16013
3784 2 17.3695 23.9103 25.863 0.194582 -0.256292 0.0088468 -0.430811
3785 2 21.3723 24.1285 26.5937 0.180951 -0.575821 1.09668 1.18712
3786 2 24.509 13.7896 34.4326 0.172603 -0.337687 0.690552 1.4948
3787 2 16.6276 19.7265 36.6787 0.189082 -1.86091 -0.365417 0.716782
3788 2 15.1245 15.513 25.9494 0.199507 0.0706229 0.398207 0.0233667
3789 2 24.3255 23.0483 30.4455 0.213532 0.121051 -0.853013 3.06011
3790 2 16.7247 19.6873 27.0471 0.188206 0.0965973 -0.119798 -0.0876889
3791 2 23.2349 21.6767 35.0695 0.190711 -0.0303191 -0.325977 -0.0102718
3792 2 23.1253 18.6477 30.3273 0.199973 0.458951 -0.625755 -0.0706364
3793 2 13.9396 17.3508 25.409 0.186667 -0.341764 -0.246944 0.49505
3794 2 14.3856 17.7974 29.4893 0.203135 0.76589 -0.432315 -0.167771
3795 2 22.4705 22.0639 27.3609 0.196003 -0.142704 -0.7106 1.33712
3796 2 20.8593 18.8769 35.9269 0.180253 0.118729 0.714826 0.736988
3797 2 21.0341 16.7236 26.901 0.169052 -0.539469 0.885443 0.292682
3798 2 15.5616 16.726 33.2902 0.1864 -0.369647 0.133241 0.208177
3799 2 17.5598 17.9822 31.4846 0.199628 0.0962734 0.235619 0.754727
3800 2 16.4013 22.0182 28.7648 0.199619 -0.129611 0.574866 -0.272563
3801 2 18.6021 16.0788 28.804 0.182534 0.0898574 0.00248878 -0.107675
3802 2 23.8449 15.3642 35.8742 0.186567 -0.0142617 -0.326492 0.162986
3803 2 18.3949 20.4539 29.1593 0.204351 1.70659 1.19887 -0.188791
3804 2 19.2554 18.3419 34.7185 0.201324 2.01919 -0.29572 0.223412
3805 2 14.2575 19.0228 31.0398 0.185235 -0.425776 -0.137988 -0.468333
3806 2 22.625 20.8062 31.7679 0.184023 -0.13241 -0.246068 -0.0691756
3807 2 21.199 17.1201 32.0115 0.19493 -1.16299 -0.649572 -0.799415
3808 2 17.2925 13.5114 36.2634 0.1929 0.495087 0.306217 0.179222
3809 2 14.8199 24.1519 28.5865 0.186397 -1.11661 0.0385991 0.051683
3810 2 14.4525 18.5401 33.81 0.192681 0.683148 -0.149397 0.472138
3811 2 18.4977 20.9282 25.5067 0.186835 1.29204 0.810771 0.777855
3812 2 24.5584 19.5008 35.6896 0.182772 0.0368832 0.0619739 0.174246
3813 2 19.2458 15.9149 32.2017 0.176326 -1.14173 -0.330468 1.37982
3814 2 19.9578 14.4426 33.9926 0.170893 0.51446 -0.881602 0.286412
3815 2 13.6985 14.7077 31.0648 0.199055 -0.0485067 0.236763 -1.32918
3816 2 21.7565 13.6423 31.242 0.1777 0.348761 1.72328 -0.979049
3817 2 21.2845 15.3367 36.5798 0.190608 0.129531 0.345696 -0.215286
3818 2 13.8405 21.8757 25.7323 0.205466 -0.114013 1.10763 0.0350798
3819 2 24.5866 15.6703 32.3808 0.195804 2.07112 -0.875358 0.0214928
3820 2 23.846 13.3923 26.2352 0.189306 0.996555 -0.83729 -1.2912
3821 2 19.8681 14.2697 26.123 0.192314 0.57358 -0.292918 -1.8962
3822 2 21.599 21.8757 33.1687 0.17777 0.441523 -0.70265 2.21929
3823 2 15.4216 24.1038 31.7613 0.189048 0.313723 -0.853766 0.169239
3824 2 19.9382 22.8682 29.3655 0.181714 0.864347 1.49566 0.454589
3825 2 19.1416 21.8386 32.3641 0.206128 2.10148 -0.0971959 -0.762852
3826 2 19.739 23.2038 35.8057 0.191298 -0.183069 0.0522831 -0.130023
3827 2 17.8946 13.5117 29.9942 0.1964 0.150349 0.149167 0.115029
3828 2 14.3628 24.0088 26.5123 0.179682 -0.378827 0.681994 -0.96828
3829 2 17.4948 23.0019 32.155 0.212097 -0.236711 -0.228535 -0.380519
3830 2 22.1845 17.9599 26.0042 0.183734 -0.627382 -0.0811107 -0.498591
3831 2 14.1794 24.3011 34.718 0.205454 -0.0875196 -0.498253 0.214018
3832 2 18.466 14.0087 27.5546 0.17232 0.541773 -0.635912 -0.0718771
3833 2 21.7964 19.6516 25.0893 0.197285 -0.462514 0.457784 -0.125481
3834 2 23.1471 19.0067 32.8645 0.183271 -0.253787 -0.958083 1.20004
3835 2 14.3078 19.4754 37.2815 0.191767 0.552662 -0.516593 -0.361406
3836 2 13.5268 21.6123 35.4631 0.184755 -2.25226 -0.750095 -1.03652
3837 2 22.6364 24.8373 33.0319 0.191536 0.860518 0.225483 0.0991072
3838 2 13.361 15.0107 28.1653 0.175951 0.989227 -1.15581 2.60834
3839 2 21.7856 15.4583 29.07 0.200015 0.564283 0.545254 -0.403934
3840 2 13.5454 22.5378 32.0838 0.214344 0.779595 0.584519 -0.266079
3841 1 11.8279 27.4471 27.0692 -0.419161 -0.121567 0.200651 0.205989
3842 1 5.3617 30.8866 26.6948 -0.352943 0.672152 0.469836 -0.938167
3843 1 12.1672 32.2276 27.6003 -0.378004 0.470532 -0.524554 -2.11405
3844 1 3.37869 29.1677 29.7301 -0.403395 0.959316 -0.39641 -0.647063
3845 1 4.5419 36.6213 36.7923 -0.349967 0.598531 0.500176 0.068411
3846 1 7.34016 25.0695 27.0689 -0.374796 -0.90701 1.11699 -2.45267
3847 1 5.7308 34.7922 35.1973 -0.42495 -0.00918924 -0.116086 1.1399
3848 1 5.32279 36.0825 26.7212 -0.345348 -0.431878 0.0270318 -0.113189
3849 1 9.39027 36.0311 25.9891 -0.382303 0.914821 -1.273 -0.444245
3850 1 12.0588 25.5269 33.8093 -0.432028 1.00998 0.539175 -1.05915
3851 1 5.00882 32.6095 36.6274 -0.326737 1.04393 0.480005 -0.247135
3852 1 3.64133 28.079 25.9668 -0.325643 0.887682 0.91743 0.0302574
3853 1 11.8791 35.7887 29.59 -0.389045 0.298025 1.01919 -1.64737
3854 1 3.88077 32.9381 27.401 -0.465715 -0.108507 -0.0803802 0.0395376
3855 1 9.82081 34.0494 35.07 -0.364353 0.660724 1.63843 0.495501
3856 1 11.0001 30.2025 30.0642 -0.323407 0.132431 0.148126 1.59892
3857 1 0.970128 29.0114 25.7303 -0.357754 0.618001 0.586613 -1.24853
3858 1 1.2398 30.8794 29.6509 -0.372229 0.211848 1.2283 -0.409245
3859 1 10.1033 33.9782 28.2108 -0.354628 0.504144 0.849827 -2.01688
3860 1 8.39162 30.6108 35.2808 -0.378539 0.863969 -0.566156 -1.89909
3861 1 8.05851 29.6117 26.1908 -0.368015 0.855016 -2.7275 -0.349962
3862 1 3.23182 28.2316 33.1487 -0.402884 2.16171 -0.499339 -0.168829
3863 1 5.02183 31.0981 32.1834 -0.410302 -0.592922 0.96863 -0.00591863
3864 1 3.94103 35.4383 28.8388 -0.407147 0.586906 0.366155 -0.284932
3865 1 6.25037 29.4519 29.1002 -0.380118 -0.830529 -1.01897 -0.795438
3866 1 12.1762 27.2406 36.0001 -0.381446 -0.249699 -0.80349 0.87675
3867 1 6.76035 33.4582 28.9604 -0.40744 -0.919603 -0.571804 0.115742
3868 1 5.87187 30.7278 34.6774 -0.356462 -2.17019 0.63641 -0.263112
3869 1 2.18017 31.8003 31.8789 -0.402001 -0.307349 0.517449 1.16595
3870 1 10.8931 32.582 31.6699 -0.353335 0.979944 0.765603 0.0834234
3871 1 8.02937 29.1701 31.4619 -0.32884 0.842154 0.0309733 0.0720577
3872 1 5.2892 26.8086 36.4484 -0.41978 -0.670148 1.23704 0.690804
3873 1 1.52776 37.0502 28.3381 -0.40666 0.0935312 -0.955507 0.526973
3874 1 2.04204 30.3783 34.5969 -0.312515 -0.248624 1.19596 -2.12406
3875 1 6.66235 33.938 26.1024 -0.344681 -1.87481 -1.20808 -0.839388
3876 1 11.7491 31.0689 35.9011 -0.373551 0.345092 0.362863 -0.814329
3877 1 6.11062 27.9612 32.8497 -0.386709 0.416992 -0.943011 -1.57152
3878 1 8.22403 26.2712 34.3213 -0.396761 -0.481519 0.814851 -0.052726
3879 1 1.31079 26.9126 31.9804 -0.383966 0.887191 -0.143797 1.68999
3880 1 9.48068 26.9972 30.8104 -0.386147 -0.542129 -1.88491 1.19954
3881 1 9.33312 28.229 35.8604 -0.411714 0.612676 -0.27856 -0.0929578
3882 1 1.30687 33.3807 25.6991 -0.39439 -0.380616 -1.3721 0.324249
3883 1 11.2467 28.3706 32.3988 -0.365507 -1.53855 0.745902 -0.474076
3884 1 11.703 25.2209 25.4917 -0.376944 -1.53552 0.0385243 0.875469
3885 1 7.63185 26.9283 25.1679 -0.391312 0.136549 0.426632 1.55553
3886 1 8.85942 34.4082 32.2909 -0.388492 -0.325725 0.741248 -1.86466
3887 1 2.01392 36.4276 31.78 -0.409374 0.81773 -0.841811 0.211137
3888 1 8.02159 36.159 29.5475 -0.384317 -1.41911 -0.8064 -0.185392
3889 1 5.82185 34.0666 32.5997 -0.327837 -1.58908 0.494873 0.989694
3890 1 8.11025 36.0829 36.105 -0.34422 0.452468 1.47431 -0.555171
3891 1 5.94162 25.732 30.803 -0.432838 -0.0132434 0.00676703 -0.191979
3892 1 1.87806 36.5508 25.5268 -0.447366 -0.161867 -0.639946 0.859618
3893 1 4.65859 36.1703 31.6216 -0.3409 -0.309347 -0.382267 -1.23253
3894 1 10.3216 31.1496 25.7787 -0.321071 1.23292 -0.350157 0.837603
3895 1 2.00824 35.9563 35.2225 -0.382658 -0.26905 0.290227 1.0068
3896 1 5.36015 26.9466 28.0294 -0.364852 -1.47035 1.27924 -1.40252
3897 1 8.56269 32.4782 37.0615 -0.420594 -0.116018 0.119859 0.229871
3898 1 10.51 30.6982 33.5503 -0.388708 0.745897 1.43302 0.417551
3899 1 2.36923 31.1167 36.9885 -0.412044 -0.167254 0.799449 1.51635
3900 1 0.301837 33.6593 34.9397 -0.378692 1.3803 0.365712 1.02901
3901 1 9.46911 37.0202 32.4593 -0.330404 -1.08136 0.124551 0.674267
3902 1 1.41074 27.2119 29.0624 -0.408518 -0.869569 1.94195 -1.48114
3903 1 9.6931 28.5808 28.4515 -0.381977 -0.54198 -0.504353 -0.107519
3904 1 0.749288 34.1101 32.2794 -0.390335 0.0713809 -1.49217 0.265923
3905 2 11.0852 27.7513 27.6365 0.191841 0.388632 0.23351 -0.376473
3906 2 5.50864 30.4045 27.4891 0.192787 0.0807149 -0.830976 1.33735
3907 2 0.236025 31.6897 28.1869 0.202137 0.578357 -0.269498 0.946388
3908 2 4.28233 29.0824 29.3479 0.178804 -0.786843 0.457086 0.603002
3909 2 3.62222 36.4477 36.6396 0.194901 -1.28143 -0.130563 0.0141589
3910 2 6.53423 36.9532 26.8633 0.175585 0.0407425 -0.0319173 0.136057
3911 2 5.36232 34.0231 35.7411 0.192539 0.50513 0.543845 -1.12444
3912 2 5.72985 35.2085 26.5248 0.184734 0.199029 -0.0821006 0.00619197
3913 2 8.71236 35.9704 25.3079 0.178004 0.187993 -0.152723 -1.01956
3914 2 0.274476 25.9303 33.1694 0.173295 -1.08347 -0.948846 0.367023
3915 2 5.45225 31.9837 36.0404 0.183172 0.562818 -0.150264 -0.324355
3916 2 3.83876 29.0458 25.9369 0.196376 -0.305915 -1.07288 0.0248647
3917 2 11.5597 35.0835 29.0353 0.193895 -0.438165 -0.411259 -0.341547
3918 2 2.99555 33.0565 27.0406 0.18473 0.184205 -0.096258 -0.0773772
3919 2 9.5352 34.9251 35.4635 0.183625 0.0662337 -1.09976 -0.609701
3920 2 11.1767 29.7283 30.9314 0.171191 -0.373892 0.304398 -1.207
3921 2 0.689202 28.6509 37.3091 0.173906 -0.131203 -0.335517 0.414498
3922 2 0.435751 30.4078 29.7772 0.193189 -1.25997 -0.72391 0.211811
3923 2 9.4975 34.3748 28.8279 0.196672 -0.382365 0.191849 0.325955
3924 2 9.0851 30.771 34.5651 0.18398 -0.97919 -0.0908372 0.841666
3925 2 7.92612 28.7326 25.6903 0.158492 -0.429545 1.74065 0.276602
3926 2 4.23213 28.1092 33.0959 0.190709 -1.44735 0.168075 0.0106322
3927 2 5.26528 30.7832 33.0752 0.187827 0.321132 -0.141428 -0.109478
3928 2 4.45006 35.7893 28.0211 0.185223 -0.528973 -0.691165 0.935701
3929 2 6.91856 29.4591 29.7752 0.198761 0.577873 0.236304 0.576006
3930 2 11.8876 26.5064 36.6294 0.179992 0.482285 0.854079 -0.692479
3931 2 6.78496 33.4397 27.995 0.179052 0.0952433 0.165433 -0.235644
3932 2 5.60769 29.8836 35.024 0.221416 0.0722755 -0.579414 0.21947
3933 2 3.09664 31.5519 31.8617 0.189372 1.10998 -0.0293348 0.204578
3934 2 11.739 33.111 31.7606 0.190532 -0.754474 -0.634425 -0.0659144
3935 2 8.39278 28.3327 31.0692 0.17919 0.254793 0.296787 0.467025
3936 2 4.6437 27.2676 37.0456 0.185641 0.743091 -0.166095 -0.496144
3937 2 0.742709 36.5826 28.7673 0.192234 1.23998 0.554837 -0.277854
3938 2 1.10953 30.186 34.6167 0.198561 -0.722589 -0.680698 0.455147
3939 2 7.53993 34.0095 25.7185 0.191267 -0.10076 -0.543473 -0.26336
3940 2 11.3602 31.0952 36.7852 0.192527 -0.314674 -0.0690956 0.28631
3941 2 5.84374 27.1004 32.426 0.184072 0.533132 1.05454 0.295667
3942 2 8.80923 26.9097 34.785 0.18129 -0.0666131 -0.22513 -0.138097
3943 2 2.16913 27.3057 32.3637 0.204025 -1.07199 -0.0482655 -0.419607
3944 2 10.0965 27.4241 31.4378 0.181356 0.165574 -0.115204 -0.178584
3945 2 9.07081 29.1696 35.7965 0.186269 -0.327632 -0.168446 -0.0263147
3946 2 0.640524 33.0076 26.3415 0.200646 0.581841 0.798612 -0.373853
3947 2 11.112 29.1023 33.0238 0.200554 -0.103263 0.201543 0.153045
3948 2 11.0169 36.9268 25.4644 0.194041 0.861807 1.22708 0.0675069
3949 2 6.82297 26.74 37.0743 0.18748 -0.156214 0.226603 0.36171
3950 2 9.1236 35.3483 32.1345 0.18475 -0.21146 -0.255818 -0.299355
3951 2 1.75637 37.3192 31.7042 0.186991 -1.34608 1.76517 -0.13494
3952 2 7.3785 36.7682 29.9694 0.177611 0.511724 -0.35777 -0.098742
3953 2 5.58654 33.1814 32.3412 0.219113 0.00109607 -0.894626 -0.273672
3954 2 8.13912 37.0193 35.7404 0.195094 -0.255212 -1.47635 0.524006
3955 2 5.47603 24.9492 31.2133 0.187086 0.207612 0.531627 -0.155921
3956 2 0.986974 36.8847 25.2964 0.186562 0.506525 -0.0238263 0.508605
3957 2 4.54021 35.8319 30.6851 0.183567 -0.0498421 0.171678 0.865788
3958 2 10.9392 31.1877 26.537 0.202987 0.0485325 0.57272 -0.361054
3959 2 2.53626 35.4463 34.6463 0.217123 0.904002 -0.619862 -1.05346
3960 2 4.73242 27.303 27.3005 0.181965 0.992304 -0.676847 1.5107
3961 2 8.84511 33.1538 36.4335 0.183838 0.536551 -0.0628886 -0.0499729
3962 2 10.902 30.9441 34.472 0.176857 -0.252352 -0.491609 -1.44355
3963 2 2.14199 30.8768 36.0815 0.183714 0.132876 0.0400679 -0.628026
3964 2 0.484606 33.9577 34.0259 0.172731 -0.138073 -0.14496 -0.0489635
3965 2 8.6852 37.225 33.0273 0.198808 0.776863 0.176568 -0.617384
3966 2 1.74595 26.3264 28.967 0.191769 -0.173767 -1.0522 -0.504931
3967 2 10.0451 29.3232 28.9858 0.193451 0.0326234 -0.385332 0.211177
3968 2 1.44205 33.3867 32.2007 0.197048 -0.543514 0.889516 -0.232473
3969 2 12.2416 28.1941 26.576 0.206968 -0.416869 -0.327608 0.44448
3970 2 6.28602 31.0947 26.4632 0.194232 -0.556889 -0.177623 -0.340751
3971 2 11.5091 32.7378 28.025 0.211422 -1.26836 0.949156 1.06877
3972 2 2.95208 28.325 29.5064 0.180386 -0.402121 0.0831681 0.0376309
3973 2 5.03993 36.056 36.1909 0.202461 0.102559 -0.276891 -0.487494
3974 2 7.60512 37.2692 27.92 0.185208 0.647764 -0.633605 2.16719
3975 2 5.94527 34.5854 34.2695 0.202876 -0.571592 -0.568895 0.317042
3976 2 4.91794 36.365 25.8553 0.1937 -0.0864607 -0.0564562 0.0789311
3977 2 8.90728 36.5676 26.5805 0.180353 -0.6451 1.28682 1.46269
3978 2 12.0685 26.2613 34.4319 0.168955 -0.374343 -0.0573234 0.896741
3979 2 4.17527 32.1704 36.6907 0.189486 -1.55545 -0.273979 0.657454
3980 2 2.6833 27.9796 25.9335 0.199343 -0.228152 0.235739 0.0449021
3981 2 11.8894 35.4632 30.4556 0.211431 0.13473 -0.529366 1.85809
3982 2 4.27002 32.1044 27.0484 0.186571 -0.0984673 0.489845 0.154455
3983 2 10.8092 34.1031 35.0598 0.189032 -0.737458 -0.291021 0.0330943
3984 2 10.6893 31.0931 30.338 0.199937 0.366262 -0.418719 -0.0712888
3985 2 1.51005 29.7941 25.4238 0.186669 -0.434177 -0.235151 0.447568
3986 2 1.94669 30.2578 29.4964 0.204455 0.977216 -0.719908 -0.241129
3987 2 10.0203 34.5205 27.3601 0.193211 -0.0788389 -0.875288 1.50253
3988 2 8.40698 31.3228 35.9326 0.181123 0.203814 0.744396 0.729155
3989 2 8.58041 29.1819 26.9051 0.170964 -0.416403 0.761937 0.425184
3990 2 3.12121 29.1722 33.2858 0.186149 -0.390299 0.0607662 0.194925
3991 2 5.12032 30.4418 31.5015 0.203009 0.192792 -0.445534 -0.00905076
3992 2 3.9716 34.4671 28.7826 0.199666 -0.117641 0.450997 -0.374071
3993 2 6.18114 28.5167 28.7848 0.180792 0.0542213 0.651026 0.112508
3994 2 11.4007 27.7939 35.8747 0.189013 -0.43144 0.0512938 0.0665532
3995 2 5.97244 32.907 29.162 0.20887 0.925052 0.656072 -0.0122969
3996 2 6.81499 30.7914 34.7287 0.200633 1.85254 -0.368436 0.232011
3997 2 1.82605 31.4756 31.0417 0.185836 -0.610316 -0.203702 -0.683023
3998 2 10.1967 33.2606 31.7657 0.18451 -0.328269 -0.113131 -0.0327636
3999 2 8.74926 29.5542 32.0208 0.194264 -1.05822 -0.503518 -0.693111
4000 2 4.84756 25.9873 36.2686 0.197752 -0.0964951 -0.970164 -0.165359
4001 2 2.36562 36.5942 28.5897 0.187365 -0.916982 -0.0325874 0.072104
4002 2 2.0153 30.9957 33.8113 0.19307 0.562736 -0.468851 0.812273
4003 2 6.03686 33.3677 25.4958 0.184343 1.7269 1.14087 1.15422
4004 2 12.1136 31.947 35.6946 0.182667 0.0288932 -0.0031619 0.170041
4005 2 6.79862 28.3531 32.1925 0.174234 -1.13111 -0.277711 1.45611
4006 2 7.52268 26.8798 33.9921 0.170897 0.321832 -0.731703 0.195298
4007 2 1.24179 27.1582 31.074 0.199478 -0.023966 0.283795 -1.49099
4008 2 9.30925 26.0781 31.2492 0.176847 0.41578 1.94369 -1.06417
4009 2 8.8383 27.7967 36.5695 0.190137 -0.108992 -0.0226666 0.196613
4010 2 1.3938 34.3277 25.7398 0.204652 -0.174114 0.701632 0.0462906
4011 2 12.1416 28.0998 32.3951 0.195035 1.65966 -0.707205 0.0832599
4012 2 11.3912 25.842 26.2306 0.18998 1.01021 -0.868384 -1.28008
4013 2 7.41945 26.7036 26.1213 0.191643 0.639597 -0.251045 -1.83232
4014 2 9.14042 34.3158 33.1711 0.178926 0.497286 -0.662599 2.34885
4015 2 2.97968 36.5628 31.7789 0.190004 0.135703 -0.958696 0.122202
4016 2 7.50376 35.3256 29.3595 0.183268 0.570606 1.07468 0.389632
4017 2 6.69562 34.28 32.3686 0.206401 2.28669 -0.0747012 -0.803403
4018 2 7.29592 35.6513 35.8183 0.190385 -0.381963 -0.00706406 -0.25629
4019 2 5.43816 25.9725 30.0128 0.196426 0.193577 0.111934 0.150362
4020 2 1.90672 36.45 26.5128 0.179203 -0.380251 0.710464 -1.11508
4021 2 5.05577 35.4451 32.1457 0.212396 -0.181871 -0.262206 -0.233976
4022 2 9.74286 30.4124 25.9885 0.185047 -0.836172 -0.415723 -0.362599
4023 2 1.73297 36.7185 34.7218 0.205738 -0.416916 0.335513 -0.210082
4024 2 6.01655 26.4488 27.542 0.169349 0.351986 -0.486608 0.0641223
4025 2 9.33663 32.0886 25.1053 0.199527 -0.462034 0.604366 -0.251132
4026 2 10.7183 31.4466 32.8664 0.182391 -0.363474 -1.00958 1.20073
4027 2 1.86697 31.9268 37.2539 0.189182 0.521365 -0.470266 -0.135531
4028 2 1.07023 34.0305 35.4737 0.187823 -1.80445 -0.46839 -0.848326
4029 2 10.1929 37.281 33.0425 0.190723 0.601496 0.136659 -0.0996626
4030 2 0.913537 27.4371 28.1804 0.176189 0.812582 -0.9194 2.26765
4031 2 9.3394 27.8995 29.065 0.202802 0.544544 0.526117 -0.272508
4032 2 1.11303 34.9895 32.1048 0.2124 0.626511 0.365103 -0.24188
4033 1 24.2777 27.4492 27.0678 -0.415598 0.535503 0.6292 -0.409846
4034 1 17.802 30.8906 26.6988 -0.35943 0.299323 0.478083 -1.02688
4035 1 24.6155 32.232 27.5988 -0.373924 0.221684 -0.329925 -1.70819
4036 1 15.8262 29.1673 29.7291 -0.403555 0.0733784 -0.346825 -0.276634
4037 1 16.985 36.6172 36.7883 -0.356567 0.899359 0.659494 0.277942
4038 1 19.7832 25.0674 27.0671 -0.37482 -0.284761 1.12449 -1.39342
4039 1 18.1757 34.7891 35.2009 -0.426143 0.0430254 -0.250744 0.83892
4040 1 17.7656 36.0755 26.7194 -0.348438 -0.254058 -0.0955247 0.00391306
4041 1 21.8343 36.0302 25.9902 -0.379252 0.785045 -1.06233 -0.104769
4042 1 24.502 25.5299 33.8077 -0.432612 1.33629 0.307594 -1.75895
4043 1 17.4537 32.6066 36.6278 -0.330095 1.47047 0.175739 -0.594509
4044 1 16.0826 28.0821 25.9685 -0.327703 1.01729 1.06463 0.0793344
4045 1 24.3257 35.788 29.589 -0.390932 0.437673 1.24264 -1.40793
4046 1 16.3231 32.9378 27.4029 -0.464854 -0.258581 0.654174 0.440901
4047 1 22.2654 34.0515 35.0696 -0.365241 0.227911 1.69397 0.484065
4048 1 23.4457 30.2011 30.0578 -0.318654 -0.016159 0.523614 1.54847
4049 1 13.4112 29.0107 25.7306 -0.363173 0.654818 0.57034 -0.902969
4050 1 13.6841 30.8804 29.6474 -0.370313 -0.541303 1.01592 -0.263789
4051 1 22.5469 33.9779 28.2087 -0.354497 0.944392 0.790166 -2.79691
4052 1 20.8357 30.6096 35.2812 -0.373079 0.814625 -0.804827 -2.11192
4053 1 20.5074 29.6092 26.1903 -0.365558 0.302709 -2.45939 -1.09534
4054 1 15.6757 28.2287 33.1497 -0.396003 2.07118 -0.25171 -0.116984
4055 1 17.4623 31.0999 32.1815 -0.405842 -0.444139 -0.0147843 -0.953885
4056 1 16.3879 35.4375 28.8375 -0.400754 0.302758 0.562239 0.111835
4057 1 18.6947 29.4519 29.0983 -0.382606 -0.0845111 -0.718516 0.0655366
4058 1 24.6261 27.2406 35.9989 -0.378785 -0.945639 -0.506953 0.992397
4059 1 19.2026 33.4621 28.9541 -0.409127 -0.728977 -0.454143 -0.352884
4060 1 18.3193 30.729 34.6766 -0.351296 -2.37938 1.18823 -0.502862
4061 1 14.6248 31.7995 31.8784 -0.403262 -0.540518 0.519401 1.04916
4062 1 23.3373 32.5788 31.6691 -0.35357 1.05601 0.428534 -0.0232516
4063 1 20.473 29.1677 31.4615 -0.321877 0.420678 0.409725 0.144011
4064 1 17.7358 26.8119 36.4502 -0.420293 -1.16927 0.245471 0.499272
4065 1 13.9764 37.0494 28.3372 -0.413821 0.276687 -1.18352 0.668321
4066 1 14.4839 30.3796 34.5982 -0.310872 -0.599624 1.10566 -2.19454
4067 1 19.1066 33.9377 26.101 -0.336653 -1.59087 -0.964985 -0.536489
4068 1 24.1933 31.0677 35.8959 -0.375822 0.00376658 0.20312 -0.0756418
4069 1 18.5535 27.9581 32.8484 -0.391457 0.687038 -0.726377 -1.70627
4070 1 20.6619 26.2674 34.3212 -0.397882 -0.360391 0.569077 -0.0441072
4071 1 13.7572 26.9101 31.9798 -0.386628 1.14429 0.266743 1.18269
4072 1 21.9276 26.9999 30.807 -0.389456 -0.00351075 -0.993553 1.39189
4073 1 21.7752 28.2287 35.8629 -0.414468 0.601944 0.0303197 -0.182732
4074 1 13.7549 33.3782 25.7002 -0.387938 0.0495061 -1.20734 -0.0428183
4075 1 23.6972 28.3716 32.4009 -0.363445 -2.8861 0.954894 -0.562653
4076 1 24.1469 25.2208 25.49 -0.380283 -1.7505 -0.194603 0.8275
4077 1 20.0773 26.931 25.1697 -0.385842 0.329803 0.52554 1.12792
4078 1 21.3036 34.4128 32.289 -0.389172 -0.331087 0.139927 -1.23549
4079 1 14.4541 36.4303 31.78 -0.411423 0.216137 -0.70877 0.180051
4080 1 20.4636 36.1593 29.55 -0.385964 -1.39755 -0.807984 -0.239304
4081 1 18.2637 34.0702 32.5991 -0.325263 -1.59457 -0.395791 0.713009
4082 1 20.5518 36.0785 36.108 -0.346511 0.55812 1.14222 -0.421636
4083 1 18.3823 25.7274 30.803 -0.428854 0.607581 0.444555 -0.0851318
4084 1 14.3232 36.5536 25.5263 -0.448746 0.0986617 -0.665074 0.476897
4085 1 17.1017 36.1715 31.6168 -0.351403 -0.321972 -0.509827 -1.16686
4086 1 22.7648 31.1478 25.7809 -0.33072 0.920884 -0.83346 1.10919
4087 1 14.4571 35.9634 35.2194 -0.378735 -0.790245 1.51082 0.447117
4088 1 17.8058 26.9478 28.0305 -0.367231 -1.63327 1.44575 -0.777297
4089 1 21.0088 32.4778 37.0568 -0.414888 -0.680443 0.445933 -0.1207
4090 1 22.955 30.7014 33.5509 -0.393691 0.628291 1.34301 0.293199
4091 1 14.8155 31.1187 36.9886 -0.41388 -0.151479 0.740842 1.39364
4092 1 12.7469 33.6539 34.9387 -0.372567 1.99207 0.685081 1.64779
4093 1 21.9142 37.0187 32.4567 -0.32961 -1.94254 0.103047 0.637661
4094 1 13.8568 27.2086 29.059 -0.404636 -0.756238 1.99153 -1.23835
4095 1 22.1373 28.5773 28.4529 -0.393275 -0.217383 0.255858 0.0428522
4096 1 13.19 34.1072 32.2765 -0.386402 0.130686 -2.11535 0.375033
4097 2 23.5424 27.7556 27.6197 0.191615 -0.0877763 0.314898 0.029773
4098 2 17.9456 30.4027 27.4892 0.194717 0.239503 -0.796043 1.32387
4099 2 12.6841 31.7036 28.1906 0.202325 0.751733 -0.440826 1.09486
4100 2 16.7078 29.0883 29.348 0.182362 0.0769118 0.35934 0.231111
4101 2 16.0766 36.4396 36.6281 0.19443 -1.77695 -0.169266 -0.05554
4102 2 18.9698 36.9491 26.8655 0.173985 0.172771 0.085785 0.1574
4103 2 17.8076 34.026 35.7532 0.190916 0.501228 0.530947 -1.11872
4104 2 18.1937 35.2077 26.5254 0.184789 0.0986485 -0.00216287 0.0339478
4105 2 21.1558 35.9706 25.3128 0.178064 0.136165 -0.194088 -1.14787
4106 2 12.7094 25.9075 33.1679 0.175533 -0.764231 -0.746324 0.0892111
4107 2 17.908 31.9718 36.0366 0.181291 0.232989 0.240981 0.0551536
4108 2 16.291 29.0518 25.9674 0.196299 -0.400603 -1.25826 -0.0340735
4109 2 23.9914 35.0911 29.0434 0.194303 -0.533195 -0.663123 -0.530982
4110 2 15.4498 33.0631 27.0305 0.186141 -0.0750885 -0.0331886 -0.164909
4111 2 21.9742 34.9363 35.4481 0.184147 0.165524 -1.23449 -0.613631
4112 2 23.634 29.7468 30.9262 0.172457 -0.362648 0.14622 -1.04584
4113 2 13.1288 28.6646 37.3218 0.17797 -0.376564 -0.644143 -0.360103
4114 2 12.8684 30.4019 29.7694 0.191086 -0.732886 -0.34491 0.147111
4115 2 21.9557 34.3661 28.8258 0.198525 -0.850106 0.486795 0.797001
4116 2 21.5156 30.7895 34.5626 0.184034 -0.832072 -0.176835 0.752801
4117 2 20.3693 28.7199 25.7052 0.159652 -0.481613 1.82218 0.117851
4118 2 16.6731 28.1242 33.1068 0.190725 -1.21541 -0.07842 -0.0611644
4119 2 17.705 30.7922 33.079 0.187146 0.30492 -0.171769 -0.248619
4120 2 16.8811 35.7905 28.0316 0.188406 -0.266887 -0.572037 0.56269
4121 2 19.3827 29.4469 29.7825 0.195221 -0.166541 0.249733 -0.165897
4122 2 24.3308 26.5086 36.6394 0.177429 0.579973 0.969243 -0.864721
4123 2 19.2445 33.4302 27.9793 0.178232 0.0108173 0.151469 0.27991
4124 2 18.0745 29.8899 35.0164 0.222334 -0.147781 -1.2143 0.47132
4125 2 15.532 31.528 31.8801 0.189395 1.25259 -0.0743963 0.156978
4126 2 24.18 33.11 31.7425 0.191957 -0.724645 -0.538867 -0.000967627
4127 2 20.8435 28.3508 31.0688 0.182211 0.435224 -0.193384 0.233944
4128 2 17.0909 27.2667 37.0501 0.183277 0.738235 -0.126126 -0.493514
4129 2 13.1671 36.5874 28.7499 0.192734 1.62198 0.603291 -0.301302
4130 2 13.5431 30.1908 34.6046 0.197812 -0.36302 -0.609876 0.497559
4131 2 19.983 33.9992 25.7216 0.19236 0.125652 -0.48524 -0.293642
4132 2 23.7987 31.0866 36.7961 0.19045 -0.0326834 -0.0732071 -0.370419
4133 2 18.3035 27.0994 32.4155 0.183092 0.438582 0.985632 0.29213
4134 2 21.257 26.896 34.7777 0.182471 -0.0205105 -0.13422 -0.0691476
4135 2 14.6187 27.3316 32.3595 0.202562 -1.33611 -0.292209 -0.491862
4136 2 22.5492 27.4313 31.4512 0.179739 -0.248638 -0.395835 -0.619284
4137 2 21.5111 29.1763 35.7914 0.185768 -0.255021 -0.464978 0.0136317
4138 2 13.0977 33.0304 26.3346 0.200192 0.0712205 0.363786 0.0611012
4139 2 23.571 29.0717 33.0528 0.203895 -0.149192 0.402822 0.26573
4140 2 23.4739 36.9075 25.4789 0.195052 0.958667 1.44647 0.0168389
4141 2 19.2803 26.7319 37.0722 0.187548 -0.200034 0.245424 0.307552
4142 2 21.5684 35.3399 32.146 0.185968 -0.0734232 0.301123 -0.466839
4143 2 14.2062 37.3293 31.6991 0.186595 -1.1665 1.4794 -0.0962199
4144 2 19.8216 36.7711 29.9683 0.177548 0.493023 -0.37237 -0.0755845
4145 2 18.0237 33.1697 32.3209 0.218312 0.292896 0.0582356 -0.00251841
4146 2 20.5935 37.0045 35.7474 0.197214 -0.286451 -1.11418 0.394447
4147 2 17.9395 24.9538 31.2065 0.190245 -0.145119 -0.0135786 0.147373
4148 2 13.4343 36.8816 25.3014 0.189048 0.295878 0.0708863 0.475326
4149 2 16.9787 35.8402 30.6766 0.183896 0.0187945 0.11416 0.98432
4150 2 23.3948 31.1797 26.5366 0.201294 -0.182831 0.516941 -0.552454
4151 2 14.9685 35.4359 34.6474 0.217355 0.956143 -0.642087 -1.20379
4152 2 17.1921 27.2983 27.3067 0.184065 0.723586 -0.550026 1.20611
4153 2 21.2947 33.1643 36.4419 0.184875 0.514585 -0.0751494 -0.088849
4154 2 23.3515 30.9601 34.4595 0.176965 -0.226745 -0.491701 -1.25396
4155 2 14.5983 30.8792 36.0776 0.184077 0.123928 0.0214188 -0.572136
4156 2 12.9351 33.9449 34.0296 0.172295 -0.153647 -0.0667271 -0.286256
4157 2 21.1345 37.2285 33.0491 0.196862 1.03731 0.0731841 -0.947036
4158 2 14.1985 26.3312 28.9389 0.193279 -0.113667 -1.20913 -0.452413
4159 2 22.5003 29.3372 28.9885 0.192025 -0.225261 -0.965456 -0.120448
4160 2 13.8902 33.381 32.2165 0.196796 -0.72512 0.973281 -0.270853
4161 2 24.6866 28.2202 26.5751 0.205369 -0.553147 -0.851554 0.643547
4162 2 18.71 31.111 26.4413 0.195292 -0.306998 -0.22467 -0.249275
4163 2 23.9394 32.7389 28.0243 0.211223 -0.824913 0.598027 0.788324
4164 2 15.3956 28.3246 29.5107 0.181434 -0.375971 0.106288 0.044451
4165 2 17.4767 36.0539 36.189 0.20226 0.310352 -0.405634 -0.645864
4166 2 20.04 37.2718 27.9271 0.184273 0.615364 -0.583975 2.02879
4167 2 18.3807 34.5578 34.2694 0.201045 -0.599187 -0.437196 0.547344
4168 2 17.3681 36.35 25.8535 0.19301 -0.151545 0.0187463 -0.0797991
4169 2 21.3429 36.5754 26.5766 0.178864 -0.457802 1.11738 1.28088
4170 2 24.5007 26.2489 34.4301 0.170956 -0.382139 0.380353 1.28775
4171 2 16.6188 32.1748 36.681 0.189204 -1.68135 -0.357782 0.640636
4172 2 15.1248 27.9824 25.9551 0.199377 -0.245445 0.273255 0.021482
4173 2 24.3311 35.473 30.4588 0.211786 0.108001 -0.514096 1.83143
4174 2 16.7107 32.1328 27.041 0.188701 0.261531 -0.300311 -0.134156
4175 2 23.2462 34.0947 35.052 0.190781 -0.412841 -0.213148 0.0723945
4176 2 23.1189 31.0917 30.3338 0.199428 0.469057 -0.598831 -0.182342
4177 2 13.967 29.7791 25.4252 0.187885 -0.465209 -0.210784 0.352456
4178 2 14.3802 30.2535 29.497 0.203228 1.18256 -0.848834 -0.289248
4179 2 22.4679 34.5397 27.3559 0.192768 -0.0731287 -1.1092 1.80366
4180 2 20.8585 31.3148 35.9265 0.182007 0.150601 1.03582 1.01477
4181 2 21.0118 29.1798 26.8862 0.174888 0.18879 0.42599 1.30079
4182 2 15.5806 29.1697 33.2999 0.185623 -0.538649 0.041282 0.197912
4183 2 17.5553 30.4185 31.4803 0.199137 0.058554 0.568082 1.0819
4184 2 16.4097 34.4734 28.7753 0.201857 -0.0946186 0.126986 -0.3864
4185 2 18.6095 28.5231 28.7917 0.179845 0.0585246 0.36128 0.0131961
4186 2 23.8372 27.8048 35.884 0.185588 0.165236 -0.360974 0.128466
4187 2 18.4099 32.9258 29.1598 0.209419 0.814817 0.552904 -0.0497867
4188 2 19.2544 30.7976 34.7176 0.202102 2.26359 -0.27831 0.225775
4189 2 14.2686 31.4816 31.0346 0.186061 -0.519169 -0.160715 -0.540316
4190 2 22.6288 33.2343 31.7657 0.186935 -0.432409 0.163741 -0.013388
4191 2 21.1818 29.562 32.0154 0.197653 -0.827986 -0.389602 -0.522467
4192 2 17.285 25.9658 36.2901 0.192844 0.410789 -0.0550748 0.0146446
4193 2 14.8291 36.5908 28.5892 0.186858 -1.48741 0.143237 -0.00511041
4194 2 14.4637 30.984 33.8015 0.192327 0.573078 -0.440997 0.849629
4195 2 18.5062 33.3753 25.497 0.185213 1.28013 0.847461 0.889066
4196 2 24.5718 31.9389 35.7054 0.182022 0.0691279 0.157356 0.125843
4197 2 19.2552 28.3613 32.1966 0.172951 -1.31909 -0.38633 1.58875
4198 2 19.9677 26.8757 33.9937 0.17239 0.147394 -0.572161 0.128891
4199 2 13.6949 27.147 31.0592 0.196674 -0.0288321 0.118565 -0.909629
4200 2 21.7502 26.1019 31.2346 0.178984 0.306542 1.34738 -0.799952
4201 2 21.2853 27.7945 36.5727 0.190601 -0.147913 -0.0304314 0.221094
4202 2 13.8158 34.3227 25.7362 0.205218 -0.0698655 0.977351 -0.0259105
4203 2 24.569 28.1032 32.375 0.198898 3.03662 -1.13775 0.0468157
4204 2 23.8261 25.8432 26.224 0.19015 1.01666 -0.917024 -1.2832
4205 2 19.8841 26.7 26.113 0.194591 0.48113 -0.37529 -1.38306
4206 2 21.5915 34.3122 33.1749 0.177146 0.336391 -0.65735 1.88071
4207 2 15.4126 36.535 31.7604 0.189517 0.586513 -0.796636 0.135877
4208 2 19.9445 35.3295 29.3479 0.182894 0.573561 1.0818 0.429756
4209 2 19.1356 34.3006 32.3565 0.205443 1.98783 -0.157597 -0.751132
4210 2 19.7407 35.6493 35.8151 0.191677 -0.470187 -0.0346423 -0.295724
4211 2 17.8889 25.9487 30.0133 0.198661 -0.0737355 0.255537 -0.259924
4212 2 14.3763 36.4735 26.5031 0.182027 -0.439454 0.635347 -0.714087
4213 2 17.4905 35.4439 32.1536 0.212041 -0.256713 -0.128667 -0.432638
4214 2 22.1709 30.4012 25.9854 0.182976 -0.366011 0.142699 -0.450775
4215 2 14.1735 36.7483 34.7009 0.202563 0.0498893 -0.885123 0.496613
4216 2 18.4651 26.4573 27.5631 0.172874 0.782058 -0.801141 -0.273484
4217 2 21.7792 32.0884 25.1017 0.199671 -0.336319 0.585194 -0.197249
4218 2 23.158 31.4377 32.8597 0.182363 -0.299788 -0.926447 1.15548
4219 2 14.3023 31.9225 37.2435 0.188594 0.518353 -0.416209 -0.0911377
4220 2 13.5317 34.0554 35.4749 0.184424 -2.43092 -0.839137 -1.20973
4221 2 22.6288 37.2786 33.0291 0.191413 1.20478 0.315545 0.276145
4222 2 13.3644 27.4404 28.1897 0.177336 0.657362 -0.815372 2.00004
4223 2 21.7755 27.9075 29.0635 0.202345 0.489211 0.350193 -0.102941
4224 2 13.5648 34.9684 32.0961 0.211778 0.746054 0.894882 -0.324383
4225 1 11.8317 39.8932 27.0704 -0.418193 0.417229 0.53198 -0.373645
4226 1 5.35957 43.3312 26.6994 -0.355218 0.672133 0.601754 -1.04463
4227 1 12.1697 44.672 27.5961 -0.37377 -0.000261 -0.169851 -1.53229
4228 1 3.37739 41.6144 29.7298 -0.399158 0.498514 -0.320255 -0.435785
4229 1 4.53778 49.061 36.7917 -0.351947 1.33721 0.604257 0.208694
4230 1 7.33947 37.5132 27.0662 -0.378247 -0.371622 1.08307 -1.55664
4231 1 5.72991 47.2369 35.1991 -0.423648 0.0438416 -0.11495 1.04826
4232 1 5.31851 48.5254 26.7151 -0.357811 0.0521289 -0.438104 0.352973
4233 1 9.39155 48.4687 25.9843 -0.385097 0.212296 -0.903064 -0.252273
4234 1 12.0625 37.9728 33.8101 -0.430804 1.24963 0.571771 -1.42632
4235 1 5.01019 45.0568 36.6267 -0.330197 0.699016 -0.50274 -0.685074
4236 1 3.64411 40.5244 25.972 -0.330308 0.462365 1.03804 0.0419237
4237 1 11.8783 48.2354 29.5881 -0.389841 0.13891 0.530504 -1.77571
4238 1 3.88113 45.3846 27.3984 -0.464238 -0.104558 0.322818 0.306821
4239 1 9.82131 46.4955 35.071 -0.373102 -0.11102 1.01667 0.206828
4240 1 10.9986 42.6429 30.0589 -0.317391 0.253791 -0.102505 2.60148
4241 1 0.967634 41.4552 25.7292 -0.360415 0.830197 0.829179 -0.822096
4242 1 1.23719 43.325 29.6526 -0.371731 0.208618 0.224061 -0.498112
4243 1 10.0999 46.4286 28.2078 -0.355203 1.1994 0.481761 -2.87196
4244 1 8.38968 43.0547 35.2797 -0.370299 0.760577 -0.303831 -1.55848
4245 1 8.05978 42.055 26.189 -0.367501 0.900985 -3.25819 -0.402452
4246 1 3.23009 40.6745 33.1536 -0.401028 2.28928 -0.710045 -0.220073
4247 1 5.01694 43.5469 32.1823 -0.407486 -0.500827 0.549133 -0.419005
4248 1 3.9434 47.8857 28.8377 -0.399531 0.365323 0.0466323 0.0485907
4249 1 6.24735 41.8954 29.0986 -0.382796 -0.595557 -0.886196 -0.49982
4250 1 12.1792 39.6843 35.9986 -0.377578 -1.07354 -0.479791 0.991096
4251 1 6.75631 45.9056 28.9566 -0.403705 -1.09711 -0.756197 -0.566457
4252 1 5.86728 43.1682 34.6801 -0.352861 -1.59172 0.535402 -0.177647
4253 1 2.18012 44.2466 31.8781 -0.401441 -0.204499 0.535815 1.21732
4254 1 10.8931 45.0241 31.6679 -0.354388 0.51374 0.808331 0.0316629
4255 1 8.031 41.612 31.4574 -0.318364 0.65239 1.01126 0.680414
4256 1 5.28969 39.2565 36.4474 -0.42143 -1.45627 0.168562 0.62696
4257 1 1.53099 49.494 28.336 -0.410834 0.421064 -0.824293 0.303318
4258 1 2.04075 42.8237 34.5977 -0.305574 -0.98926 0.672686 -1.63674
4259 1 6.66107 46.3815 26.0982 -0.339035 -2.49929 -1.1946 -0.408274
4260 1 11.7522 43.5139 35.9005 -0.37539 0.0152 0.0073346 -0.426256
4261 1 6.11197 40.4056 32.8467 -0.393902 0.801691 -0.674626 -1.67536
4262 1 8.21984 38.7134 34.3187 -0.399332 0.141613 1.02232 0.377514
4263 1 1.30863 39.3557 31.9781 -0.378109 1.18981 0.064742 1.79421
4264 1 9.47859 39.4403 30.8082 -0.391487 -0.0981416 -1.32015 1.30301
4265 1 9.32913 40.6721 35.8581 -0.40723 0.217821 0.00210929 0.330266
4266 1 1.31124 45.8271 25.6997 -0.393642 -0.473591 -0.994293 0.502553
4267 1 11.2484 40.8147 32.4008 -0.357468 -2.3496 0.862918 -0.652453
4268 1 11.701 37.6632 25.491 -0.375796 -2.00011 0.100563 1.23125
4269 1 7.63359 39.3732 25.1701 -0.384024 0.349929 0.56667 1.30004
4270 1 8.85633 46.8539 32.2882 -0.381231 -0.485843 0.0935495 -1.7285
4271 1 2.01227 48.8701 31.7809 -0.410307 0.406991 -0.213861 0.15058
4272 1 8.01962 48.6036 29.5508 -0.388542 -1.2728 -0.850473 -0.253847
4273 1 5.82178 46.5138 32.6042 -0.324955 -1.09998 -0.0878826 0.607325
4274 1 8.10802 48.5242 36.1087 -0.34195 0.161381 1.25553 -0.625695
4275 1 5.94112 38.1755 30.8028 -0.436467 0.168653 -0.383747 0.378783
4276 1 1.87619 48.9946 25.5329 -0.448556 0.0650859 -0.70653 0.968462
4277 1 4.66055 48.6153 31.6162 -0.350144 -0.354948 -0.446883 -1.36458
4278 1 10.3217 43.5981 25.7806 -0.334019 1.13024 -0.703831 1.12576
4279 1 2.01035 48.4065 35.2199 -0.380927 -0.647406 1.13575 0.685295
4280 1 5.36396 39.3947 28.0314 -0.367646 -1.8934 1.66062 -0.618147
4281 1 8.56104 44.9251 37.0587 -0.413579 -0.951794 -1.13865 1.23529
4282 1 10.5117 43.1462 33.5484 -0.393095 0.572503 1.18951 0.569422
4283 1 2.3726 43.566 36.9909 -0.412518 -0.126799 0.267487 0.699532
4284 1 0.303027 46.1035 34.9382 -0.374527 1.91032 0.809384 1.03885
4285 1 9.46871 49.4662 32.4603 -0.332409 -2.036 -0.121754 0.115747
4286 1 1.4086 39.656 29.0588 -0.407502 -0.754892 1.75044 -1.74997
4287 1 9.69072 41.0224 28.4505 -0.386974 -0.309409 0.0611473 0.191755
4288 1 0.745176 46.5552 32.2796 -0.39043 0.247485 -2.26895 0.389331
4289 2 11.0952 40.2094 27.6216 0.191982 0.056433 0.315908 -0.0877178
4290 2 5.4981 42.8463 27.4943 0.194192 0.241348 -0.777208 1.2413
4291 2 0.254022 44.1332 28.1778 0.203021 0.46819 -0.169726 0.916706
4292 2 4.26863 41.5245 29.3504 0.181189 -0.284878 0.43084 0.394149
4293 2 3.62439 48.9039 36.6541 0.196814 -1.87201 -0.289141 -0.146672
4294 2 6.54479 49.4199 26.8721 0.17773 -0.386698 -0.344027 -0.0493029
4295 2 5.38227 46.4621 35.7447 0.191699 0.387894 0.512485 -1.02743
4296 2 5.74783 47.6525 26.5207 0.183162 0.0439449 0.186185 0.113445
4297 2 8.70237 48.3989 25.3005 0.175852 0.530388 -0.104139 -0.678166
4298 2 0.279467 38.3822 33.1781 0.173019 -1.12934 -1.03627 0.337956
4299 2 5.46215 44.409 36.0367 0.179031 0.112022 0.407692 0.187696
4300 2 3.83506 41.4967 25.9425 0.19507 -0.332973 -1.25374 0.0176996
4301 2 11.5557 47.519 29.03 0.192337 -0.248561 -0.00101559 0.0296789
4302 2 3.00225 45.5019 27.0322 0.186415 0.0092748 -0.0808407 -0.16225
4303 2 9.52314 47.358 35.4415 0.1868 -0.0659701 -0.557668 -0.321052
4304 2 11.1889 42.1723 30.9624 0.16576 -0.582152 0.683712 -2.13547
4305 2 0.696003 41.098 37.3401 0.180484 -0.592675 -0.890201 -1.03366
4306 2 0.424804 42.836 29.7643 0.189775 -0.673361 -0.299795 0.14244
4307 2 9.51078 46.8056 28.8242 0.199853 -1.08372 0.64181 1.03012
4308 2 9.06558 43.2261 34.5572 0.184597 -0.820602 -0.117709 0.759168
4309 2 7.91732 41.1603 25.6853 0.155114 -0.340027 2.15226 0.494307
4310 2 4.23219 40.5424 33.1004 0.191792 -1.54618 0.199714 0.0141961
4311 2 5.2689 43.229 33.0723 0.187321 0.289187 -0.147298 -0.160917
4312 2 4.44674 48.2347 28.0371 0.186946 -0.296947 -0.496308 0.535542
4313 2 6.92346 41.8981 29.7745 0.197523 0.331618 0.226287 0.322773
4314 2 11.8746 38.9471 36.6312 0.17726 0.613243 1.02955 -0.87057
4315 2 6.78999 45.8575 27.9782 0.175336 0.128715 0.273528 0.416582
4316 2 5.62164 42.31 35.0161 0.220435 0.152488 -0.410566 0.145954
4317 2 3.0983 43.997 31.8683 0.189547 1.02535 0.00465076 0.220129
4318 2 11.7375 45.5467 31.7424 0.191329 -0.6371 -0.469814 0.00118797
4319 2 8.41198 40.8069 31.0777 0.183009 0.566806 -0.602255 -0.00305194
4320 2 4.64296 39.7015 37.063 0.181015 0.88769 -0.191201 -0.657015
4321 2 0.743748 49.0153 28.7329 0.195375 1.20022 0.440169 -0.066372
4322 2 1.09318 42.6269 34.6166 0.198019 0.0465791 -0.49488 0.433241
4323 2 7.526 46.4472 25.7252 0.194147 0.733062 -0.463486 -0.594625
4324 2 11.3591 43.5268 36.7905 0.191992 -0.170874 -0.0515329 -0.000627124
4325 2 5.8488 39.5486 32.4209 0.183804 0.512854 0.953135 0.222803
4326 2 8.81781 39.3573 34.7979 0.18026 -0.567944 -0.60423 -0.507427
4327 2 2.17215 39.7654 32.349 0.201514 -1.23183 -0.218649 -0.294173
4328 2 10.1136 39.8642 31.4359 0.180619 -0.188884 -0.333468 -0.477238
4329 2 9.06816 41.6283 35.81 0.184233 -0.191042 -0.674905 -0.078064
4330 2 0.639587 45.4528 26.3429 0.198491 0.690645 0.836467 -0.486035
4331 2 11.1283 41.5406 33.0252 0.202827 -0.18777 0.414552 0.357978
4332 2 11.0365 49.3694 25.4603 0.195955 0.583533 0.964358 0.0513091
4333 2 6.83778 39.1842 37.0724 0.189469 -0.570166 0.121538 0.142448
4334 2 9.13503 47.7723 32.1429 0.186963 -0.100762 0.518544 -0.589804
4335 2 1.7479 49.7719 31.6951 0.184579 -1.03815 1.0426 -0.0694901
4336 2 7.37469 49.204 29.9737 0.178389 0.413638 -0.269354 -0.0360519
4337 2 5.58928 45.6186 32.3226 0.216529 0.145562 -0.197406 -0.047272
4338 2 8.13436 49.4569 35.751 0.194391 -0.158702 -1.25373 0.479526
4339 2 5.47815 37.3796 31.2155 0.186911 0.31143 0.798673 -0.302852
4340 2 0.98983 49.3308 25.303 0.18761 0.368383 0.0242722 0.50746
4341 2 4.53534 48.2861 30.6693 0.183891 0.0384284 0.155862 1.15089
4342 2 10.9502 43.6211 26.536 0.201115 -0.109459 0.58344 -0.523511
4343 2 2.52254 47.8814 34.6462 0.217528 0.948911 -0.641986 -1.17825
4344 2 4.74502 39.7501 27.3117 0.185195 0.782917 -0.580129 1.2091
4345 2 8.83554 45.5846 36.4635 0.190246 1.06884 1.29435 -1.25961
4346 2 10.8808 43.3936 34.4793 0.177379 -0.12868 -0.453266 -1.50289
4347 2 2.15491 43.3131 36.0653 0.182755 0.277784 0.238147 0.0543991
4348 2 0.490932 46.3996 34.0135 0.170001 -0.221326 -0.248576 0.310025
4349 2 8.68731 49.6762 33.0356 0.199209 0.835144 0.130249 -0.729766
4350 2 1.76274 38.773 28.9507 0.191126 -0.295849 -0.790588 -0.445661
4351 2 10.0448 41.7832 28.9909 0.192437 -0.19674 -0.957274 -0.118378
4352 2 1.43973 45.8086 32.2171 0.196864 -0.857892 1.27212 -0.280201
4353 2 12.2501 40.6441 26.5573 0.206287 -0.63487 -0.757607 0.740976
4354 2 6.27673 43.5688 26.4549 0.194269 -0.692482 -0.359374 -0.141299
4355 2 11.4984 45.177 28.0417 0.209843 -0.632907 0.459875 0.618648
4356 2 2.95187 40.7696 29.5182 0.181062 -0.453815 0.0195131 0.017883
4357 2 5.04033 48.5028 36.1833 0.204696 -0.0511091 -0.268287 -0.436845
4358 2 7.59875 49.7182 27.9194 0.187244 0.763879 -0.700686 2.50107
4359 2 5.92799 47.0185 34.2697 0.201995 -0.514728 -0.505284 0.298968
4360 2 4.93389 48.7915 25.8542 0.19219 -0.356647 0.182657 -0.38287
4361 2 8.90285 49.0251 26.5735 0.177372 -0.275054 0.85916 0.962025
4362 2 12.0677 38.7007 34.4334 0.169485 -0.408336 0.0973212 1.08529
4363 2 4.16415 44.6054 36.6922 0.184917 -0.777971 0.129076 0.566133
4364 2 2.67758 40.4188 25.9472 0.197449 0.212954 0.299396 0.0410129
4365 2 11.8815 47.9212 30.462 0.211107 0.102554 -0.45985 1.60984
4366 2 4.27756 44.5633 27.0542 0.187575 0.0384835 0.0781051 -0.0227011
4367 2 10.7882 46.5475 35.069 0.193034 0.196943 -0.2164 0.0175639
4368 2 10.683 43.5361 30.3359 0.197314 0.435934 -0.564287 -0.150186
4369 2 1.51762 42.2366 25.4249 0.187794 -0.550681 -0.388098 0.405517
4370 2 1.94843 42.6866 29.4776 0.201307 0.404813 -0.116353 -0.0673729
4371 2 10.0104 46.9775 27.3551 0.193977 -0.0639695 -0.964841 1.65219
4372 2 8.41696 43.7669 35.9427 0.180348 0.140196 0.526651 0.481926
4373 2 8.58831 41.6141 26.9007 0.168765 -0.543612 0.88607 0.257397
4374 2 3.13058 41.6118 33.2963 0.186933 -0.409991 0.254475 0.217398
4375 2 5.11984 42.8894 31.4848 0.201953 0.131482 -0.0233616 0.472141
4376 2 3.96477 46.9124 28.7573 0.198872 -0.126725 0.575112 -0.299685
4377 2 6.17288 40.9633 28.7841 0.180196 0.0597218 0.539514 0.0807227
4378 2 11.393 40.2571 35.8825 0.185188 0.259043 -0.458888 0.140845
4379 2 5.95396 45.3625 29.1454 0.205926 1.07227 0.752371 0.0373703
4380 2 6.82226 43.2481 34.7177 0.199503 1.20617 -0.437292 0.237241
4381 2 1.83247 43.9165 31.0417 0.186715 -0.662376 -0.232038 -0.748954
4382 2 10.1818 45.6986 31.7642 0.184187 0.00901263 -0.297924 -0.0734724
4383 2 8.74519 42.0199 32.0165 0.19609 -1.20924 -0.591271 -0.797741
4384 2 4.83152 38.4106 36.278 0.191627 0.540831 0.125183 0.0558373
4385 2 2.38705 49.0529 28.5715 0.189549 -1.19779 -0.0431646 0.118757
4386 2 2.0188 43.4325 33.8226 0.194991 0.534329 -0.132976 0.408052
4387 2 6.04585 45.8132 25.4934 0.18596 1.54708 1.05095 1.0494
4388 2 12.1155 44.3869 35.708 0.183109 0.162087 0.326106 0.0794029
4389 2 6.83869 40.7959 32.2041 0.17274 -1.50409 -0.409714 1.5931
4390 2 7.52246 39.3146 33.9843 0.171437 0.193103 -0.544475 0.168842
4391 2 1.26124 39.6126 31.0759 0.198427 -0.171201 0.253621 -1.67124
4392 2 9.31047 38.5294 31.2316 0.178523 0.342581 1.60698 -0.861784
4393 2 8.84064 40.2398 36.5881 0.187792 0.144515 0.171748 -0.212882
4394 2 1.38453 46.7837 25.7428 0.202694 -0.184224 0.280758 0.000415401
4395 2 12.1266 40.5406 32.3891 0.197577 2.55845 -1.00616 0.0577652
4396 2 11.3733 38.2928 26.2358 0.187003 1.23547 -1.11327 -1.60228
4397 2 7.42588 39.1598 26.1209 0.194605 0.497178 -0.362029 -1.65356
4398 2 9.15926 46.7631 33.1595 0.178942 0.510403 -0.804809 2.49951
4399 2 2.97549 48.9954 31.77 0.189329 0.27068 -0.854827 0.13404
4400 2 7.51176 47.7674 29.3578 0.183905 0.515399 1.03084 0.380419
4401 2 6.70479 46.73 32.3642 0.204017 1.63647 -0.187035 -0.61248
4402 2 7.28095 48.1123 35.8143 0.189524 -0.186632 -0.0281969 -0.152969
4403 2 5.45023 38.4122 30.0163 0.197538 -0.0949992 0.217862 -0.261221
4404 2 1.92186 48.9067 26.5225 0.178966 -0.470008 0.709329 -1.25217
4405 2 5.05789 47.8934 32.1502 0.212233 -0.241723 -0.21532 -0.402937
4406 2 9.73554 42.8568 25.9944 0.182602 -0.596122 -0.0896117 -0.462233
4407 2 1.72834 49.1849 34.7111 0.204136 -0.0884452 -0.495898 0.241541
4408 2 6.01662 38.9036 27.5672 0.174492 0.98197 -0.978024 -0.447393
4409 2 9.32832 44.5343 25.0927 0.199171 -0.0600467 0.389498 0.0546062
4410 2 10.7125 43.8847 32.8655 0.183984 -0.256275 -0.803807 1.11036
4411 2 1.86452 44.3653 37.2442 0.189175 0.342615 -0.177017 -0.0377006
4412 2 1.0744 46.509 35.4825 0.184629 -2.29375 -0.798424 -1.22121
4413 2 10.1785 49.7138 33.0303 0.193364 1.51316 0.448939 0.579153
4414 2 0.934938 39.8928 28.1588 0.174895 0.818908 -0.992463 2.51829
4415 2 9.33665 40.3398 29.0616 0.202088 0.557426 0.535957 -0.244955
4416 2 1.11673 47.4226 32.1069 0.212575 0.781552 0.71516 -0.324843
4417 1 24.2732 39.8946 27.0649 -0.419214 0.156779 0.565353 -0.0927486
4418 1 17.8008 43.3354 26.7008 -0.354506 0.200751 0.294737 -0.704696
4419 1 24.6133 44.6754 27.6029 -0.376028 0.385041 -0.46496 -1.77863
4420 1 15.8235 41.6118 29.7302 -0.404705 1.12444 0.498877 -0.277454
4421 1 16.9822 49.0628 36.7896 -0.352105 1.50933 0.606317 0.233688
4422 1 19.7795 37.5136 27.0685 -0.376457 -0.462958 0.906409 -1.45314
4423 1 18.1718 47.2366 35.2001 -0.420147 0.113078 0.160272 1.08612
4424 1 17.7672 48.5225 26.7203 -0.356198 -0.312615 -0.125957 0.0513977
4425 1 21.8372 48.4731 25.9918 -0.38761 0.313023 -1.49386 -1.33404
4426 1 24.503 37.9738 33.8094 -0.433186 1.42087 0.720513 -1.48525
4427 1 17.4559 45.0512 36.6281 -0.330171 0.336404 0.0438253 -0.202182
4428 1 16.0841 40.5271 25.9677 -0.331515 0.00630073 1.46163 0.0530572
4429 1 24.3264 48.2374 29.5914 -0.393014 0.00492904 0.601674 -2.70455
4430 1 16.3226 45.3861 27.3969 -0.466436 0.232504 -0.0249517 0.247151
4431 1 22.2626 46.4937 35.0684 -0.360945 0.816771 1.90562 0.552698
4432 1 23.4439 42.6431 30.06 -0.318222 -0.12659 0.761307 1.62891
4433 1 13.4125 41.4532 25.7278 -0.35308 0.671049 0.627551 -0.542278
4434 1 13.6841 43.3245 29.6496 -0.367909 -0.61153 0.988219 -0.265097
4435 1 22.5455 46.4222 28.2098 -0.353252 1.16757 0.372315 -2.48955
4436 1 20.832 43.055 35.2793 -0.372181 1.04317 -0.710357 -2.22184
4437 1 20.502 42.0508 26.1883 -0.367409 0.783604 -2.5042 -0.418224
4438 1 15.6732 40.6744 33.1504 -0.402654 2.47773 -1.13174 -0.30982
4439 1 17.4651 43.542 32.1764 -0.409984 -0.462596 0.400293 -0.469537
4440 1 16.3836 47.8858 28.8366 -0.40281 0.301736 -0.160443 0.103454
4441 1 18.6928 41.8935 29.0964 -0.382664 -0.174145 -0.788331 -0.0205167
4442 1 24.6219 39.6842 35.9979 -0.380269 -0.956635 -0.593836 1.04112
4443 1 19.2035 45.9045 28.9572 -0.407814 -1.06569 -0.661731 -0.344764
4444 1 18.3114 43.1742 34.6787 -0.353475 -2.01722 0.582142 -0.230845
4445 1 14.6264 44.2424 31.8802 -0.402487 -0.79684 0.559743 0.91704
4446 1 23.3361 45.0261 31.6692 -0.349071 0.496081 0.848104 0.0944991
4447 1 20.4723 41.6162 31.4559 -0.321983 0.565301 0.251336 0.129643
4448 1 17.7384 39.2535 36.4475 -0.421142 -1.01058 0.77378 0.652163
4449 1 13.976 49.4924 28.3392 -0.409073 0.124133 -1.00681 0.566398
4450 1 14.4851 42.823 34.5989 -0.309551 0.273574 0.902953 -1.63494
4451 1 19.1005 46.3877 26.1012 -0.334569 -1.45532 -1.04209 -0.588518
4452 1 24.194 43.5156 35.8986 -0.376391 0.234508 0.580634 -0.38266
4453 1 18.5542 40.4041 32.8484 -0.387557 0.575811 -0.771431 -1.62517
4454 1 20.6628 38.7123 34.3211 -0.395599 -0.42894 0.697505 -0.100489
4455 1 13.7548 39.3551 31.98 -0.382324 1.0252 -0.149539 2.24986
4456 1 21.9236 39.4394 30.8099 -0.388184 -0.808272 -1.98695 0.881878
4457 1 21.773 40.6728 35.858 -0.413404 0.541552 0.228434 -0.16651
4458 1 13.7546 45.8247 25.7 -0.390294 -0.284051 -1.18073 0.239723
4459 1 23.6942 40.8146 32.4016 -0.367654 -0.999369 0.470273 -0.552301
4460 1 24.1452 37.6643 25.4881 -0.376805 -1.84893 -0.547895 0.813907
4461 1 20.075 39.3733 25.1701 -0.395211 0.12226 0.41333 1.57747
4462 1 21.3027 46.8555 32.291 -0.385638 -0.209606 0.106178 -0.980168
4463 1 14.4544 48.8744 31.7815 -0.410028 0.601989 -0.214016 0.116171
4464 1 20.4649 48.6003 29.5479 -0.385839 -0.949659 -0.848475 -0.338408
4465 1 18.2631 46.5121 32.5997 -0.329625 -1.88058 0.501873 1.13724
4466 1 20.5548 48.5226 36.1073 -0.3438 0.267734 1.36784 -0.656507
4467 1 18.3838 38.1757 30.7998 -0.42879 0.41921 -0.0469794 0.266384
4468 1 14.3254 48.9931 25.5325 -0.447163 -0.162634 -0.591761 0.332028
4469 1 17.1028 48.6151 31.6224 -0.349458 -0.39905 -0.264109 -1.1471
4470 1 22.7663 43.5925 25.778 -0.324933 0.909596 -0.525325 0.772293
4471 1 14.4544 48.4055 35.2192 -0.381608 -0.697347 1.13546 0.921844
4472 1 17.8057 39.3967 28.032 -0.366411 -2.09144 1.74223 -0.482278
4473 1 21.0032 44.9256 37.0607 -0.411425 -0.649156 0.502622 -0.168405
4474 1 22.9534 43.146 33.5481 -0.389821 0.653613 1.60831 0.314017
4475 1 14.8133 43.5664 36.9907 -0.415906 -0.32485 0.81365 1.11128
4476 1 12.7447 46.1061 34.9356 -0.382728 1.66734 0.578231 0.791664
4477 1 21.9151 49.465 32.4621 -0.33054 -1.52715 -0.000277035 0.253286
4478 1 13.8537 39.6553 29.0603 -0.41307 -0.807655 1.97955 -1.48859
4479 1 22.1335 41.0211 28.4543 -0.387283 0.00255716 0.677018 -0.277916
4480 1 13.1917 46.5549 32.2802 -0.389401 0.486058 -1.95361 0.273317
4481 2 23.5348 40.2168 27.6199 0.190392 0.232838 0.177153 -0.202387
4482 2 17.9513 42.8478 27.497 0.194227 0.187381 -0.648661 1.05929
4483 2 12.6956 44.1394 28.1789 0.201566 0.603904 -0.298542 0.940501
4484 2 16.7255 41.5348 29.3619 0.180483 -0.490311 0.428979 0.463204
4485 2 16.0782 48.8904 36.6348 0.196263 -2.11173 -0.302585 -0.169023
4486 2 18.9777 49.411 26.8812 0.176895 -0.181515 -0.261336 0.0496782
4487 2 17.8106 46.4737 35.7393 0.192874 0.373183 0.279238 -0.920936
4488 2 18.1754 47.6434 26.5295 0.185594 0.111114 0.122987 0.0123178
4489 2 21.1437 48.4096 25.2903 0.173933 0.919582 -0.0217799 -0.193047
4490 2 12.7144 38.3765 33.1698 0.173899 -0.967375 -0.939902 0.250896
4491 2 17.9089 44.415 36.0523 0.182371 0.301588 -0.0467246 -0.182811
4492 2 16.2858 41.5115 25.9438 0.19214 -0.466439 -1.76947 0.027332
4493 2 23.9856 47.5205 29.037 0.190494 -0.140849 0.17689 0.111965
4494 2 15.4524 45.5081 27.0246 0.185956 -0.232725 -0.0210699 -0.23466
4495 2 21.9757 47.3818 35.45 0.182204 0.10428 -1.32298 -0.652917
4496 2 23.6185 42.1911 30.9355 0.171792 -0.341073 0.199359 -1.11232
4497 2 13.1239 41.0924 37.3264 0.176797 -0.264423 -0.507586 -0.18423
4498 2 12.8712 42.8409 29.7775 0.190866 -0.709794 -0.292842 0.129247
4499 2 21.9675 46.8103 28.8337 0.200551 -0.995637 0.595949 0.918678
4500 2 21.5315 43.2231 34.5617 0.182608 -1.1024 -0.194946 0.927647
4501 2 20.3755 41.1763 25.6916 0.159664 -0.519488 1.57323 0.0804012
4502 2 16.681 40.5589 33.0891 0.190715 -1.66692 0.160262 0.0381192
4503 2 17.7156 43.2286 33.0687 0.186781 0.274154 -0.125636 -0.186317
4504 2 16.8731 48.2348 28.0249 0.186938 -0.260822 -0.615434 0.598967
4505 2 19.3733 41.8941 29.7885 0.196173 -0.157687 0.16573 -0.191625
4506 2 24.3214 38.9534 36.6411 0.176763 0.618279 1.01423 -0.922811
4507 2 19.2258 45.8927 27.9819 0.176138 0.113729 0.17963 0.219473
4508 2 18.0572 42.3288 35.0291 0.220096 -0.0280142 -0.604116 0.21329
4509 2 15.5377 43.9999 31.8592 0.190761 1.4478 -0.130487 0.185623
4510 2 24.1696 45.5614 31.7563 0.191002 -0.486822 -0.523126 -0.0355941
4511 2 20.8399 40.7848 31.0806 0.180946 0.36719 -0.0635448 0.243345
4512 2 17.095 39.7136 37.0516 0.184248 0.810191 -0.273825 -0.601055
4513 2 13.1766 49.021 28.7484 0.193089 1.43831 0.597594 -0.241502
4514 2 13.5637 42.6247 34.6037 0.201449 -1.26129 -0.818107 0.515627
4515 2 19.9748 46.4385 25.713 0.191644 0.120726 -0.44385 -0.213508
4516 2 23.8012 43.5335 36.795 0.190945 -0.0801396 -0.0379417 -0.224585
4517 2 18.2866 39.5511 32.4143 0.184572 0.525056 0.977766 0.271218
4518 2 21.259 39.348 34.7714 0.18258 -0.0795683 -0.178692 -0.0913531
4519 2 14.6086 39.7705 32.3559 0.202919 -1.09298 -0.17773 -0.338107
4520 2 22.543 39.849 31.4273 0.182705 0.473659 0.139061 0.117876
4521 2 21.5071 41.625 35.801 0.1849 -0.196187 -0.619422 -0.0198052
4522 2 13.0827 45.4534 26.3302 0.200835 0.47801 0.720557 -0.250567
4523 2 23.5616 41.5303 33.0379 0.200649 -0.147222 0.331841 0.230898
4524 2 23.4782 49.3673 25.4691 0.196229 0.636165 1.03676 0.0466639
4525 2 19.2757 39.1713 37.0736 0.187989 -0.272784 0.226685 0.286246
4526 2 21.5703 47.7808 32.1437 0.18598 -0.0809103 0.297077 -0.450852
4527 2 14.1945 49.777 31.6779 0.184857 -0.966141 0.99023 -0.050399
4528 2 19.8237 49.1925 29.9678 0.179742 0.194868 0.0511999 0.1517
4529 2 18.0494 45.6277 32.3317 0.21976 -0.050553 -1.04955 -0.324956
4530 2 20.5902 49.462 35.7494 0.195541 -0.311814 -1.52979 0.516259
4531 2 17.9205 37.3954 31.1991 0.188037 0.154533 0.333776 0.0596569
4532 2 13.4301 49.3215 25.3118 0.187561 0.507652 0.00351802 0.498192
4533 2 16.9727 48.2899 30.6849 0.184963 0.0427923 0.0671791 0.853397
4534 2 23.3807 43.6365 26.5328 0.202773 0.151192 0.551076 -0.222318
4535 2 14.9619 47.889 34.6416 0.217251 1.12733 -0.878836 -1.34468
4536 2 17.1755 39.7367 27.3157 0.185416 0.780163 -0.507467 1.1886
4537 2 21.2956 45.6111 36.4473 0.184223 0.469772 -0.0738649 -0.0987637
4538 2 23.3409 43.3952 34.4664 0.176087 -0.192442 -0.489833 -1.34228
4539 2 14.5968 43.3283 36.0657 0.183289 0.187331 0.223161 -0.0777019
4540 2 12.9341 46.3931 34.0088 0.17005 -0.247282 -0.227348 0.301807
4541 2 21.1476 49.6864 33.0417 0.198749 0.593981 0.158198 -0.59977
4542 2 14.1943 38.7715 28.9681 0.192246 -0.184429 -1.05507 -0.515964
4543 2 22.4831 41.7807 28.9986 0.192027 -0.160587 -0.916129 -0.166282
4544 2 13.8953 45.8145 32.2167 0.195521 -0.932454 1.30216 -0.259186
4545 2 24.6925 40.6508 26.5714 0.205101 -0.519916 -0.637586 0.565033
4546 2 18.7048 43.5564 26.4406 0.195839 -0.171143 -0.18708 -0.294841
4547 2 23.9461 45.1866 28.0323 0.211892 -0.872128 0.635005 0.896167
4548 2 15.4103 40.7862 29.5061 0.184394 -0.835038 -0.807136 -0.183168
4549 2 17.4925 48.5074 36.1859 0.203886 0.0104854 -0.232361 -0.414223
4550 2 20.0594 49.7259 27.9242 0.186313 0.598084 -0.575342 2.00242
4551 2 18.3858 47.0244 34.2775 0.203566 -0.532177 -0.579513 0.14975
4552 2 17.3717 48.8061 25.8571 0.193155 -0.144412 -0.0329581 -0.0562731
4553 2 21.3658 49.0182 26.5796 0.180847 -0.769763 1.36838 1.50165
4554 2 24.5089 38.7009 34.4359 0.16851 -0.426678 0.033909 1.05741
4555 2 16.5942 44.6275 36.6956 0.186343 -0.611759 0.0658495 0.488393
4556 2 15.1025 40.4299 25.9552 0.194594 0.809118 0.385367 0.0279669
4557 2 24.3292 47.9234 30.4515 0.211787 0.131928 -0.730464 2.46201
4558 2 16.7155 44.5587 27.0419 0.186615 -0.0430759 0.357308 0.128843
4559 2 23.2566 46.5561 35.0563 0.187596 -0.930798 -0.347433 0.0316871
4560 2 23.1251 43.5493 30.3214 0.199274 0.566387 -0.920183 -0.194506
4561 2 13.9496 42.2241 25.4138 0.18901 -0.227659 0.0404096 0.416714
4562 2 14.3783 42.6961 29.4995 0.203197 1.23131 -0.854957 -0.287337
4563 2 22.4719 46.9719 27.3677 0.196168 -0.14972 -0.797717 1.38042
4564 2 20.8492 43.768 35.9185 0.182072 0.169743 0.958277 0.950955
4565 2 21.0124 41.613 26.8979 0.172093 -0.247881 0.728648 0.680104
4566 2 15.5604 41.6004 33.2985 0.187822 -0.467794 0.728824 0.298907
4567 2 17.5653 42.8719 31.4868 0.200203 0.107102 0.101674 0.548078
4568 2 16.4072 46.9044 28.7906 0.20108 -0.0961214 0.899775 -0.416202
4569 2 18.6022 40.9646 28.7777 0.180364 0.135805 0.491505 0.118528
4570 2 23.8345 40.2477 35.8763 0.185404 0.14539 -0.3337 0.132073
4571 2 18.4049 45.3576 29.1458 0.206877 1.05232 0.723726 0.00168535
4572 2 19.2562 43.2242 34.7304 0.199578 1.81895 -0.28897 0.188432
4573 2 14.2686 43.9381 31.0289 0.185965 -0.487939 -0.145425 -0.429315
4574 2 22.6297 45.7032 31.7697 0.18403 -0.138163 -0.28242 -0.0634867
4575 2 21.1903 42.0103 32.0005 0.196202 -0.895415 -0.387569 -0.527964
4576 2 17.2931 38.4201 36.2691 0.195513 0.151838 -0.42403 -0.0216215
4577 2 14.8209 49.0385 28.5902 0.187718 -1.14473 -0.00631611 0.0545883
4578 2 14.4671 43.4252 33.8221 0.196829 0.593924 -0.0259088 0.310278
4579 2 18.5113 45.8109 25.5047 0.184979 1.15019 0.85824 0.868119
4580 2 24.5686 44.3973 35.6941 0.181557 -0.108499 -0.249219 0.258851
4581 2 19.2576 40.8034 32.2014 0.174162 -1.29396 -0.357188 1.50464
4582 2 19.9686 39.3194 33.9792 0.171446 0.271529 -0.677406 0.217211
4583 2 13.6941 39.5984 31.0834 0.199995 -0.141852 0.412763 -2.11352
4584 2 21.7526 38.5239 31.2435 0.177708 0.366686 1.79294 -1.00973
4585 2 21.2892 40.2401 36.5725 0.189742 -0.16048 -0.0669033 0.227728
4586 2 13.8278 46.7752 25.7403 0.204595 -0.164993 0.588436 0.0142418
4587 2 24.5993 40.5473 32.3985 0.192852 1.16609 -0.574078 0.0637739
4588 2 23.8335 38.2739 26.2273 0.189792 0.966799 -0.701173 -1.13767
4589 2 19.87 39.1554 26.1329 0.192689 0.544186 -0.267344 -2.11385
4590 2 21.5732 46.7634 33.1886 0.176618 0.260557 -0.619123 1.61092
4591 2 15.4252 48.984 31.7594 0.188423 -0.00875184 -0.809954 0.176988
4592 2 19.9477 47.7795 29.3535 0.184186 0.444123 0.70415 0.289423
4593 2 19.1291 46.742 32.3789 0.206907 2.63035 0.0619741 -0.889693
4594 2 19.7358 48.0877 35.8175 0.190299 -0.149858 0.15054 -0.179476
4595 2 17.8956 38.3836 30.0089 0.197228 -0.165692 0.390672 -0.499044
4596 2 14.3717 48.9005 26.5059 0.181599 -0.386423 0.639158 -0.603861
4597 2 17.4937 47.8923 32.1529 0.213332 -0.207183 -0.306865 -0.320094
4598 2 22.1808 42.8548 25.993 0.184572 -0.669306 -0.214339 -0.407985
4599 2 14.1768 49.1772 34.7074 0.203877 -0.213993 -0.244147 0.167933
4600 2 18.4499 38.9056 27.5652 0.175315 1.17633 -1.1139 -0.575984
4601 2 21.7847 44.5368 25.1165 0.19761 -0.561976 0.618574 -0.345116
4602 2 23.1509 43.9102 32.8698 0.181157 -0.333769 -1.16834 1.22145
4603 2 14.311 44.3799 37.2733 0.189166 0.622642 -0.680096 -0.310601
4604 2 13.5183 46.4914 35.4653 0.185737 -2.00045 -0.595819 -0.951696
4605 2 22.6358 49.7144 33.0299 0.192599 1.23187 0.326161 0.3074
4606 2 13.3756 39.8878 28.1715 0.176666 0.755414 -0.961139 2.30353
4607 2 21.7871 40.3551 29.0572 0.203397 0.213894 -0.112505 0.252557
4608 2 13.5588 47.4308 32.0939 0.211809 0.634252 0.375158 -0.228921
4609 1 11.8295 2.56077 39.5122 -0.41653 0.049853 0.932343 -0.0685746
4610 1 5.36042 6.00216 39.1427 -0.354493 0.847854 0.854424 -1.55379
4611 1 12.1709 7.33719 40.0453 -0.370075 0.274443 -0.468294 -1.47402
4612 1 3.38017 4.27761 42.1753 -0.39894 1.04736 -0.179038 -0.592838
4613 1 4.53957 11.734 49.2337 -0.358029 1.28627 0.610624 0.229156
4614 1 7.34396 0.17834 39.513 -0.374709 -0.31549 1.23145 -1.64292
4615 1 5.73316 9.90149 47.6414 -0.421642 0.188855 0.20943 0.752591
4616 1 5.31878 11.1898 39.1616 -0.349563 0.080289 -0.547243 0.354392
4617 1 9.39155 11.1388 38.4328 -0.382675 1.54564 -1.9178 -1.04496
4618 1 12.0602 0.637355 46.2532 -0.431268 1.21295 0.052004 -1.87151
4619 1 5.00889 7.71955 49.074 -0.331228 1.23217 0.350207 -0.375043
4620 1 3.63733 3.19081 38.4147 -0.333545 0.615052 0.927278 0.0609744
4621 1 11.8797 10.9025 42.0331 -0.385738 0.55239 1.34017 -0.482861
4622 1 3.87878 8.05209 39.8428 -0.462191 -0.616716 0.0686843 -0.121434
4623 1 9.81891 9.16089 47.5164 -0.368015 0.472436 1.5052 0.422869
4624 1 11.0029 5.31073 42.5037 -0.31794 0.193375 -0.129516 2.0191
4625 1 0.96941 4.12021 38.1754 -0.358022 0.548758 0.532058 -1.05432
4626 1 1.24177 5.99157 42.0941 -0.374603 -0.373469 0.726547 -0.300548
4627 1 10.1006 9.0904 40.6572 -0.358092 0.773638 0.651953 -2.34703
4628 1 8.39303 5.72214 47.7224 -0.375315 0.48251 -0.30833 -1.21777
4629 1 8.05943 4.72312 38.6329 -0.366637 0.592614 -2.71187 -0.802343
4630 1 3.23159 3.33946 45.5941 -0.401685 1.70615 0.329017 -0.044848
4631 1 5.01628 6.21049 44.6237 -0.40646 -0.57877 0.833086 -0.331915
4632 1 3.93724 10.5517 41.2862 -0.397202 0.355203 -0.096863 0.110065
4633 1 6.24709 4.55968 41.545 -0.381626 -0.429106 -0.871977 -0.335727
4634 1 12.1769 2.35192 48.4448 -0.383406 -0.851319 -0.852129 1.24174
4635 1 6.76084 8.57188 41.4027 -0.400134 -1.39456 -0.933591 -0.402792
4636 1 5.86925 5.8361 47.1249 -0.356592 -1.68291 1.25585 -0.490725
4637 1 2.18129 6.90712 44.3247 -0.408525 -0.82149 0.653208 1.19399
4638 1 10.8882 7.69102 44.1113 -0.349712 1.69463 0.107187 0.00382574
4639 1 8.02799 4.28107 43.9022 -0.321714 0.760239 0.419044 0.328289
4640 1 5.29232 1.92077 48.8952 -0.418053 -1.04669 -0.089887 0.180911
4641 1 1.52873 12.1625 40.7859 -0.405056 1.11501 -0.894977 0.386649
4642 1 2.04012 5.48842 47.0437 -0.302499 -0.441744 0.826099 -1.69371
4643 1 6.66296 9.04862 38.5429 -0.337256 -1.53307 -1.11883 -0.831034
4644 1 11.7528 6.18396 48.343 -0.375786 0.32166 0.3336 -0.723318
4645 1 6.11286 3.06697 45.2917 -0.389175 0.779355 -0.397322 -1.48306
4646 1 8.22095 1.37868 46.7632 -0.394976 -0.725965 0.894953 -0.156527
4647 1 1.30889 2.02102 44.4254 -0.380722 0.766993 0.15654 0.882304
4648 1 9.47849 2.11057 43.2563 -0.391555 -0.143889 -1.59091 1.41021
4649 1 9.33117 3.34055 48.3026 -0.412843 0.451067 -0.416412 0.183446
4650 1 1.31144 8.49344 38.1464 -0.3884 -0.0962247 -1.51733 0.0465217
4651 1 11.2511 3.47888 44.8424 -0.362284 -2.21544 1.16784 -0.296526
4652 1 11.6992 0.329239 37.9341 -0.380836 -1.44732 0.607594 1.30821
4653 1 7.62942 2.03963 37.6166 -0.389506 -0.225264 0.308773 1.66696
4654 1 8.85991 9.51868 44.7338 -0.391372 -0.494213 0.716927 -2.12143
4655 1 2.01339 11.5417 44.2243 -0.408445 -0.220338 -0.0894901 0.1199
4656 1 8.01957 11.2697 41.9958 -0.387042 -1.92556 -0.954248 -0.108048
4657 1 5.81683 9.17913 45.0444 -0.325225 -0.541063 0.370227 0.608933
4658 1 8.11298 11.1903 48.5549 -0.343849 -0.021644 1.55835 -0.846724
4659 1 5.93649 0.841839 43.2413 -0.433458 0.318103 -0.0551285 0.243854
4660 1 1.88168 11.6592 37.9736 -0.447355 -0.00456417 -0.684431 0.518029
4661 1 4.66215 11.2784 44.0602 -0.352409 -0.41615 -0.374018 -1.3499
4662 1 10.3191 6.25924 38.2234 -0.326771 1.61296 -0.729748 1.78695
4663 1 2.00832 11.0702 47.666 -0.383056 -1.09732 1.66307 1.03122
4664 1 5.35987 2.06152 40.4714 -0.366534 -1.69282 1.4873 -0.671638
4665 1 8.5602 7.59193 49.5046 -0.412618 -0.304634 -0.174789 0.443542
4666 1 10.5104 5.80764 45.9937 -0.392575 0.728035 1.50392 0.124292
4667 1 2.36951 6.22844 49.4376 -0.416486 -0.346177 0.419729 0.467861
4668 1 0.300411 8.77252 47.3862 -0.380386 1.73619 0.528393 1.41406
4669 1 9.47201 12.1295 44.8996 -0.321245 -1.02504 0.327571 1.04769
4670 1 1.40872 2.31721 41.5059 -0.408431 -0.928181 2.17666 -1.41964
4671 1 9.69063 3.68899 40.8944 -0.381512 -0.0824344 0.356267 -0.534688
4672 1 0.748132 9.21947 44.722 -0.386165 -0.297896 -1.6946 0.360413
4673 2 11.0842 2.87185 40.0844 0.18977 0.578955 0.134586 -0.536583
4674 2 5.51729 5.51945 39.9245 0.194456 0.261914 -1.08469 1.74217
4675 2 0.242173 6.81067 40.6148 0.203904 1.09518 -0.799615 1.49708
4676 2 4.27908 4.19043 41.7918 0.178502 -0.567255 0.574025 0.576241
4677 2 3.63157 11.5561 49.0932 0.1955 -1.93243 -0.281027 -0.13547
4678 2 6.52004 12.0602 39.3384 0.17277 0.220284 0.142919 0.0042322
4679 2 5.36995 9.14835 48.183 0.193127 0.314353 0.178346 -0.864549
4680 2 5.74238 10.3106 38.9743 0.183932 0.053634 0.251676 0.104088
4681 2 8.70603 11.0796 37.7654 0.179593 0.0607399 -0.176921 -1.20601
4682 2 0.269877 1.02855 45.5956 0.175963 -1.13935 -0.852168 0.587817
4683 2 5.45635 7.08994 48.4847 0.182564 0.365154 0.00690462 -0.152214
4684 2 3.84938 4.15752 38.3977 0.195789 -0.419076 -1.17902 -0.0021481
4685 2 11.5714 10.1845 41.5184 0.194553 -0.732491 -1.07378 -1.01743
4686 2 2.9848 8.16772 39.4772 0.181946 0.587653 -0.101382 0.112159
4687 2 9.52748 10.0371 47.8965 0.18468 0.0461058 -1.00152 -0.536576
4688 2 11.1705 4.85373 43.3973 0.168867 -0.407763 0.433642 -1.66087
4689 2 0.680015 3.76904 49.777 0.178388 -0.342583 -0.597963 -0.502489
4690 2 0.422111 5.51513 42.2156 0.190376 -0.594502 -0.316092 0.104699
4691 2 9.50902 9.48663 41.2772 0.197853 -0.629409 0.387057 0.549282
4692 2 9.07173 5.89942 47.0207 0.184966 -0.578317 -0.0670514 0.425481
4693 2 7.93305 3.83792 38.1263 0.158309 -0.418858 1.91742 0.377569
4694 2 4.22231 3.2329 45.5353 0.190839 -1.05601 0.00990677 -0.0181117
4695 2 5.26399 5.90273 45.5107 0.187572 0.345427 -0.198382 0.128147
4696 2 4.44488 10.8852 40.486 0.187328 -0.29567 -0.405634 0.46975
4697 2 6.92094 4.57778 42.2283 0.197618 0.204473 0.23236 0.197619
4698 2 11.885 1.60444 49.0894 0.176483 0.616372 1.28731 -1.09264
4699 2 6.78818 8.53654 40.4261 0.175529 0.150939 0.240502 0.285835
4700 2 5.63145 4.99611 47.4662 0.221143 -0.162521 -1.23515 0.478265
4701 2 3.09001 6.66135 44.3169 0.191146 1.5127 -0.166217 0.116859
4702 2 11.7335 8.22029 44.2053 0.190876 -0.726488 -0.65028 -0.066824
4703 2 8.40086 3.45732 43.5222 0.180838 0.345943 -0.190371 0.183947
4704 2 4.6414 2.36731 49.4797 0.185426 0.532845 0.0502092 -0.246252
4705 2 0.75971 11.6932 41.1962 0.192532 0.680025 0.267983 0.0263916
4706 2 1.10337 5.29004 47.0587 0.199909 -0.454775 -0.586353 0.417776
4707 2 7.54024 9.10615 38.1446 0.191362 -0.26399 -0.531004 -0.126355
4708 2 11.3621 6.19884 49.2289 0.192811 -0.248306 -0.0343775 0.195267
4709 2 5.86691 2.22165 44.8556 0.184522 0.293372 0.561133 0.127083
4710 2 8.80563 2.01583 47.2244 0.181996 -0.0110212 -0.169583 -0.0948488
4711 2 2.15165 2.44796 44.7956 0.201884 -0.904552 -0.165291 -0.251841
4712 2 10.1063 2.53316 43.8924 0.180194 -0.145798 -0.320933 -0.481505
4713 2 9.08028 4.28529 48.2472 0.186132 -0.339092 -0.219722 -0.0340831
4714 2 0.643574 8.12795 38.7694 0.201346 0.246758 0.557875 -0.0588313
4715 2 11.124 4.2187 45.4676 0.200249 -0.141197 0.0365603 0.0300138
4716 2 11.0325 12.0227 37.917 0.195279 0.83008 1.31468 0.0635416
4717 2 6.82551 1.83894 49.5208 0.187359 -0.112066 0.284678 0.339463
4718 2 9.1249 10.4558 44.5793 0.185347 -0.210024 -0.154412 -0.332996
4719 2 1.75641 12.449 44.1298 0.184125 -0.998574 0.861802 -0.0471042
4720 2 7.36211 11.8846 42.4168 0.174539 0.814246 -0.746437 -0.324121
4721 2 5.60328 8.28488 44.773 0.217223 0.074264 -0.556811 -0.172686
4722 2 8.12447 12.137 48.2016 0.192033 -0.144878 -1.6541 0.595393
4723 2 5.45787 0.0750482 43.658 0.189805 0.200009 0.409435 -0.126279
4724 2 0.991349 11.984 37.7516 0.187552 0.285097 0.0824775 0.389136
4725 2 4.54444 10.9303 43.126 0.182309 -0.0360824 0.264033 0.93486
4726 2 10.9552 6.28515 39.0011 0.199271 -0.603001 0.597967 -1.18
4727 2 2.51893 10.5574 47.0987 0.218745 1.37881 -1.08184 -1.62756
4728 2 4.73934 2.41555 39.7549 0.185074 0.759718 -0.565493 1.15917
4729 2 8.84805 8.26541 48.8916 0.184883 0.61954 0.303685 -0.406417
4730 2 10.8982 6.06103 46.9093 0.177115 -0.193581 -0.467098 -1.33988
4731 2 2.13994 5.99924 48.501 0.179857 0.383068 0.22699 0.354182
4732 2 0.479754 9.06171 46.4726 0.172639 -0.109876 -0.0687484 -0.133448
4733 2 8.69629 12.3387 45.485 0.196452 0.754454 0.108679 -0.797335
4734 2 1.76459 1.44558 41.4026 0.193994 -0.113289 -1.24569 -0.535967
4735 2 10.0516 4.42755 41.4364 0.192806 -0.0103966 -0.475534 0.0565268
4736 2 1.43051 8.49579 44.6533 0.198407 -0.333405 0.708758 -0.280574
4737 2 12.2518 3.32475 39.0036 0.205147 -0.749456 -0.964993 0.873648
4738 2 6.28207 6.22351 38.8816 0.193589 -0.897541 -0.328399 -0.133549
4739 2 11.5059 7.8495 40.485 0.210415 -0.767919 0.555561 0.738858
4740 2 2.97449 3.44149 41.9261 0.180409 -0.706174 -0.248552 0.0363095
4741 2 5.04477 11.1676 48.6398 0.20261 0.0442398 -0.260979 -0.498998
4742 2 7.59079 12.3886 40.3669 0.184918 0.899817 -0.699914 2.64963
4743 2 5.92589 9.68454 46.7079 0.202783 -0.551148 -0.514116 0.402528
4744 2 4.9467 11.4522 38.2932 0.193086 -0.379871 0.201777 -0.381145
4745 2 8.9264 11.6635 39.0204 0.184204 -1.16189 1.95874 2.2863
4746 2 12.0761 1.35281 46.8704 0.172588 -0.424066 0.619819 1.55049
4747 2 4.17176 7.2892 49.1407 0.189113 -1.55012 -0.314764 0.635289
4748 2 2.67108 3.09178 38.3951 0.198441 0.152535 0.351696 0.0284186
4749 2 11.899 10.5781 42.9089 0.208342 0.174643 -0.195189 1.38132
4750 2 4.25639 7.21832 39.4884 0.18616 0.00392056 0.364477 0.141585
4751 2 10.8019 9.21253 47.5104 0.189948 -0.518227 -0.260915 0.0355631
4752 2 10.6807 6.19964 42.7582 0.199836 0.332667 -0.30482 -0.0509444
4753 2 1.50518 4.90304 37.8713 0.187894 -0.375359 -0.206224 0.364183
4754 2 1.94561 5.36213 41.9408 0.202919 0.870128 -0.615031 -0.203793
4755 2 10.0218 9.63113 39.8018 0.193398 -0.0915032 -0.903021 1.62686
4756 2 8.4029 6.43716 48.3834 0.180264 0.162921 0.490157 0.495635
4757 2 8.57597 4.29884 39.3394 0.173124 -0.189826 0.558489 0.7789
4758 2 3.11846 4.28887 45.7605 0.183946 -0.345473 -0.596562 0.102637
4759 2 5.11504 5.53692 43.9533 0.201188 0.152569 -0.273149 0.0955891
4760 2 3.97046 9.57624 41.2292 0.200199 -0.163067 0.625437 -0.324727
4761 2 6.17844 3.62181 41.2508 0.180291 0.0455224 0.528224 0.0305019
4762 2 11.3934 2.91876 48.3287 0.185707 0.0451953 -0.353403 0.131786
4763 2 5.95613 8.01557 41.5881 0.205192 1.34986 0.95087 -0.014214
4764 2 6.81654 5.90681 47.1644 0.199924 1.61671 -0.321486 0.199556
4765 2 1.81363 6.58229 43.4919 0.186284 -0.493918 -0.212776 -0.655118
4766 2 10.2051 8.35204 44.2091 0.187662 -1.03238 0.554118 0.0334348
4767 2 8.74634 4.65561 44.469 0.19461 -1.07127 -0.402637 -0.655166
4768 2 4.8367 1.07891 48.7048 0.193806 0.507507 0.11451 0.102923
4769 2 2.37866 11.703 41.0443 0.18666 -1.36438 0.203927 -0.0987096
4770 2 2.02912 6.09558 46.2649 0.195922 0.476195 -0.163447 0.459029
4771 2 6.03913 8.48159 37.9469 0.184043 1.56348 1.03696 1.04008
4772 2 12.1323 7.05831 48.1451 0.182419 -0.0273081 -0.0148013 0.186882
4773 2 6.81681 3.46548 44.6457 0.172787 -1.26322 -0.302279 1.52383
4774 2 7.51386 1.99002 46.4336 0.169582 0.495421 -0.875584 0.273195
4775 2 1.25437 2.25981 43.5027 0.196717 -0.0726583 0.068075 -0.853036
4776 2 9.32048 1.18488 43.6744 0.177427 0.343722 1.86868 -0.941273
4777 2 8.83874 2.90429 49.022 0.189834 0.055798 0.149339 -0.0801479
4778 2 1.38029 9.435 38.1885 0.205835 -0.108873 1.08416 0.0124336
4779 2 12.1364 3.21558 44.8394 0.196526 2.34162 -0.923373 0.0466716
4780 2 11.3887 0.969247 38.6832 0.188411 1.16307 -1.23581 -1.68807
4781 2 7.42188 1.82608 38.5881 0.191394 0.657941 -0.223593 -2.362
4782 2 9.1619 9.41724 45.6005 0.179569 0.605393 -0.717621 2.65767
4783 2 2.96534 11.6589 44.2216 0.190181 0.838154 -0.795914 0.117808
4784 2 7.50912 10.4164 41.7935 0.181443 0.760416 1.60309 0.557433
4785 2 6.70537 9.41343 44.8057 0.203311 1.16853 -0.311364 -0.482724
4786 2 7.28534 10.771 48.2587 0.188025 -0.0214958 0.0698614 -0.0997466
4787 2 5.45437 1.07482 42.4496 0.198041 -0.121515 0.258075 -0.31528
4788 2 1.90957 11.5538 38.9479 0.180799 -0.306942 0.658822 -0.661095
4789 2 5.0385 10.5509 44.5888 0.21116 -0.100835 -0.337114 -0.14496
4790 2 9.7305 5.51956 38.4456 0.181847 -0.545329 -0.0263722 -0.516826
4791 2 1.72807 11.8514 47.1552 0.203896 -0.0722963 -0.580349 0.338761
4792 2 6.02141 1.57808 40.0031 0.173586 0.798463 -0.850509 -0.329403
4793 2 9.33776 7.19419 37.5423 0.199412 -0.307979 0.514833 -0.105715
4794 2 10.7134 6.55533 45.2988 0.181685 -0.358768 -1.10258 1.34044
4795 2 1.85958 7.02666 49.708 0.188326 0.474431 -0.316568 -0.103117
4796 2 1.07734 9.16238 47.9234 0.186057 -2.19135 -0.694798 -1.12269
4797 2 10.1891 12.3884 45.5008 0.188982 0.56266 0.0651889 -0.329201
4798 2 0.912744 2.55098 40.6263 0.177032 0.791924 -0.970879 2.243
4799 2 9.35064 3.02652 41.5012 0.203462 0.137409 -0.239391 0.313566
4800 2 1.10907 10.0867 44.5297 0.213576 0.776266 0.734361 -0.287353
4801 1 24.274 2.55868 39.5126 -0.426724 -0.264296 0.664194 0.295905
4802 1 17.8018 6.00307 39.1446 -0.358635 0.512988 0.286006 -0.747387
4803 1 24.6169 7.33689 40.0422 -0.374448 -0.151773 0.0571867 -2.34697
4804 1 15.8224 4.28039 42.1776 -0.39504 0.642025 -0.842557 -0.779462
4805 1 16.9843 11.7312 49.2316 -0.356214 1.71738 0.567944 0.120195
4806 1 19.7855 0.180457 39.5139 -0.37846 -0.569474 1.01227 -1.62985
4807 1 18.1752 9.89866 47.646 -0.426547 0.521282 0.254454 -0.359556
4808 1 17.7644 11.1907 39.163 -0.349607 0.118281 -0.703077 0.187325
4809 1 21.837 11.1348 38.4351 -0.384697 0.731452 -1.66604 -1.32013
4810 1 24.5069 0.642988 46.256 -0.436932 1.32541 -0.483257 -2.46526
4811 1 17.454 7.72297 49.0736 -0.333236 0.546154 -0.143152 -0.386988
4812 1 16.086 3.19134 38.4151 -0.32809 0.474361 1.61004 0.0353526
4813 1 24.3217 10.9003 42.0308 -0.394508 0.116567 0.596129 -1.77656
4814 1 16.3266 8.04876 39.8421 -0.463135 -0.713993 0.941373 0.398847
4815 1 22.264 9.15951 47.5165 -0.368331 -0.123727 1.87411 0.619112
4816 1 23.4413 5.31517 42.5041 -0.319596 0.215628 -0.0571556 1.92601
4817 1 13.4152 4.12137 38.1702 -0.355267 0.586297 0.5618 -0.508651
4818 1 13.6846 5.99027 42.093 -0.370883 -0.0500981 0.31011 -0.420439
4819 1 22.5423 9.0914 40.6532 -0.357226 1.0459 0.430988 -2.36571
4820 1 20.8362 5.72084 47.7251 -0.373209 0.599016 -0.925768 -1.91062
4821 1 20.503 4.72068 38.6344 -0.363362 0.731393 -2.71518 -0.610242
4822 1 15.6718 3.34052 45.5962 -0.402153 2.172 -0.790342 -0.21007
4823 1 17.4661 6.20859 44.6216 -0.412256 -0.266518 0.210674 0.360763
4824 1 16.3854 10.5497 41.2846 -0.403051 0.300035 0.219248 0.11535
4825 1 18.6955 4.55961 41.5439 -0.381838 -0.407973 -0.968358 -0.340421
4826 1 24.623 2.3531 48.4461 -0.385234 -1.086 -0.255873 0.901816
4827 1 19.2062 8.57077 41.4025 -0.402081 -1.29519 -0.848313 -0.583001
4828 1 18.314 5.84219 47.1268 -0.346825 -1.66934 1.33829 -0.566887
4829 1 14.6253 6.90886 44.3221 -0.407117 -0.746875 0.559731 0.992411
4830 1 23.3322 7.68877 44.1137 -0.343506 1.74588 0.285591 0.038636
4831 1 20.4733 4.28409 43.9066 -0.329419 0.998257 -0.269353 -0.0764541
4832 1 17.7393 1.92346 48.8927 -0.419774 -1.17895 0.271068 0.479893
4833 1 13.9742 12.1614 40.7822 -0.407155 0.150506 -0.93316 0.433026
4834 1 14.4873 5.48949 47.0416 -0.313374 -0.57609 0.837859 -1.73745
4835 1 19.1071 9.04879 38.5409 -0.335965 -2.0308 -1.05808 -0.437239
4836 1 24.193 6.18231 48.3413 -0.376145 0.157212 -0.184204 -0.70355
4837 1 18.5547 3.06586 45.2941 -0.385796 0.450575 -0.851323 -1.42911
4838 1 20.6637 1.37907 46.7638 -0.397811 -0.11599 0.660894 0.146529
4839 1 13.7495 2.0232 44.4263 -0.382214 1.15978 -0.0268359 1.89686
4840 1 21.9241 2.10704 43.257 -0.380024 -0.327636 -1.46853 1.18866
4841 1 21.7763 3.34067 48.3041 -0.410658 0.536113 -0.464082 0.0782632
4842 1 13.7554 8.48878 38.1435 -0.390359 -0.401512 -0.389356 0.48994
4843 1 23.6944 3.47928 44.845 -0.361772 -2.07217 0.565094 -0.763173
4844 1 24.1433 0.333246 37.9326 -0.374589 -1.38535 -0.714445 0.260624
4845 1 20.0755 2.04172 37.6141 -0.390606 0.417428 0.48362 1.81222
4846 1 21.3032 9.52442 44.7347 -0.394938 -0.291785 0.836577 -1.87915
4847 1 14.4556 11.5368 44.222 -0.410295 0.567777 -0.242822 0.12417
4848 1 20.4631 11.2697 41.9954 -0.387706 -1.50153 -1.33561 -0.363436
4849 1 18.2656 9.18082 45.0442 -0.320223 -1.18812 0.0771111 0.755299
4850 1 20.5519 11.1924 48.5529 -0.342111 0.416272 1.20123 -0.508439
4851 1 18.3854 0.841046 43.245 -0.433519 0.96073 -0.0375699 0.844309
4852 1 14.3275 11.661 37.9738 -0.445834 0.49747 -0.884423 1.06722
4853 1 17.1016 11.2789 44.0674 -0.34819 -0.400918 0.0979969 -0.787159
4854 1 22.7645 6.262 38.2239 -0.322714 0.543469 -1.45376 1.33088
4855 1 14.4562 11.0696 47.6681 -0.383322 -0.924097 1.60724 0.721086
4856 1 17.8046 2.06096 40.4716 -0.368315 -2.12119 1.80234 -0.531608
4857 1 21.0059 7.58965 49.5039 -0.418056 -0.584516 -0.361796 0.629151
4858 1 22.9557 5.81209 45.9962 -0.39798 0.55222 1.55081 -0.279772
4859 1 14.8138 6.22883 49.4325 -0.410155 0.185163 0.415275 1.58115
4860 1 12.746 8.77043 47.3854 -0.376998 1.56952 0.432284 1.2478
4861 1 21.914 12.1294 44.903 -0.330706 -1.95941 0.0125778 0.449351
4862 1 13.8516 2.32059 41.5047 -0.408864 -0.838983 1.89094 -1.61094
4863 1 22.135 3.68885 40.8952 -0.381885 -0.568865 -0.57312 0.461809
4864 1 13.1933 9.21734 44.7239 -0.384587 -0.176686 -1.79198 0.380416
4865 2 23.5235 2.86808 40.0875 0.189237 0.731729 0.0928677 -0.651784
4866 2 17.9674 5.50406 39.9294 0.192211 0.0924175 -0.710619 1.1485
4867 2 12.6919 6.79239 40.6315 0.201384 0.445186 -0.101334 0.768107
4868 2 16.7116 4.17846 41.7781 0.178373 -0.526488 0.581928 0.574713
4869 2 16.0793 11.5556 49.1045 0.195564 -2.26597 -0.320796 -0.152357
4870 2 18.9722 12.0541 39.3122 0.174759 0.259529 0.15434 0.227227
4871 2 17.8214 9.1483 48.1852 0.193187 0.216376 -0.0372744 -0.745383
4872 2 18.1873 10.3034 38.9744 0.18363 -0.0599546 0.469902 0.112527
4873 2 21.1612 11.0658 37.7293 0.177028 0.670036 -0.0531399 -0.439241
4874 2 12.7018 1.0413 45.6044 0.174736 -0.924978 -0.929464 0.229659
4875 2 17.8828 7.08291 48.4797 0.181126 0.510991 0.0983246 -0.146807
4876 2 16.2858 4.17847 38.3964 0.192757 -0.468041 -1.84431 0.010171
4877 2 23.9989 10.1796 41.4806 0.192137 -0.254056 -0.0456312 0.0177816
4878 2 15.4403 8.17444 39.4798 0.1853 0.292465 -0.0974345 -0.0271213
4879 2 21.9775 10.0482 47.9014 0.183118 0.141108 -1.40308 -0.708873
4880 2 23.6147 4.83913 43.3823 0.169501 -0.408371 0.430866 -1.51916
4881 2 13.1211 3.75596 49.7651 0.175541 -0.15358 -0.367167 0.191239
4882 2 12.8675 5.50714 42.2197 0.18995 -0.539278 -0.257203 0.120231
4883 2 21.9574 9.48113 41.2755 0.199657 -0.842379 0.523546 0.752127
4884 2 21.5241 5.8837 47.0217 0.18498 -0.708559 -0.0546895 0.51849
4885 2 20.3758 3.83021 38.1422 0.159135 -0.433686 1.86533 0.280202
4886 2 16.6704 3.21982 45.5487 0.19175 -1.38866 0.124933 -0.0183001
4887 2 17.7206 5.89077 45.5351 0.183573 0.0736942 0.160128 -0.94105
4888 2 16.8824 10.8879 40.4803 0.186612 -0.241297 -0.412919 0.473516
4889 2 19.3706 4.56269 42.2285 0.19663 0.157359 0.241067 0.1514
4890 2 24.343 1.624 49.093 0.177841 0.454824 0.955363 -0.844077
4891 2 19.2356 8.53594 40.421 0.174945 0.101748 0.220313 0.526989
4892 2 18.0697 5.00224 47.457 0.221117 -0.247333 -1.38206 0.531616
4893 2 15.5348 6.66178 44.3113 0.189975 1.488 -0.135363 0.196512
4894 2 24.1772 8.22873 44.2027 0.190719 -0.827459 -0.75562 -0.0651884
4895 2 20.8455 3.43903 43.5159 0.177827 0.104448 0.555674 0.569917
4896 2 17.0895 2.36972 49.4946 0.183443 0.758745 -0.145875 -0.511658
4897 2 13.1899 11.6824 41.1937 0.192797 1.20507 0.551272 -0.20652
4898 2 13.5464 5.29638 47.0637 0.198644 -0.276402 -0.527128 0.377757
4899 2 19.9755 9.11207 38.1598 0.193213 0.44752 -0.459556 -0.419843
4900 2 23.8138 6.19973 49.2266 0.192711 -0.361524 -0.0944004 0.406221
4901 2 18.2983 2.20784 44.8697 0.184779 0.424605 0.897273 0.240957
4902 2 21.2612 2.00795 47.2371 0.182215 -0.306702 -0.297826 -0.305896
4903 2 14.6174 2.42284 44.8001 0.20301 -1.27157 -0.169735 -0.385339
4904 2 22.5413 2.52565 43.897 0.181487 0.0348568 -0.177083 -0.34434
4905 2 21.5191 4.28204 48.2361 0.186846 -0.360985 -0.181278 0.0146902
4906 2 13.0799 8.13201 38.7864 0.19806 0.632701 0.702912 -0.423238
4907 2 23.5618 4.193 45.4741 0.202608 -0.195228 0.569401 0.466272
4908 2 23.4658 12.0312 37.916 0.193563 0.859809 1.21043 0.00492357
4909 2 19.2794 1.83709 49.5218 0.188023 -0.307544 0.225715 0.245207
4910 2 21.5856 10.4637 44.5805 0.184579 -0.281102 -0.391705 -0.193554
4911 2 14.2148 12.4428 44.1282 0.184174 -1.16564 1.16072 -0.0721905
4912 2 19.8179 11.876 42.4018 0.177018 0.360245 -0.141199 0.0533595
4913 2 18.0409 8.29089 44.7539 0.218514 0.115075 -0.402292 -0.0946818
4914 2 20.5951 12.1184 48.1865 0.196268 -0.254803 -1.15873 0.445503
4915 2 17.9316 0.0658968 43.6597 0.191301 -0.0203435 0.260029 -0.0895295
4916 2 13.4486 11.9828 37.7453 0.189189 -0.1375 0.23686 0.322199
4917 2 16.9868 10.9697 43.1392 0.186519 -0.0976456 -0.167031 0.310929
4918 2 23.393 6.29405 38.9798 0.20044 -0.103859 0.577849 -0.532354
4919 2 14.9574 10.5519 47.0883 0.217129 1.1654 -0.907606 -1.41788
4920 2 17.1765 2.41419 39.7547 0.185481 0.863794 -0.608473 1.25283
4921 2 21.2784 8.2745 48.9093 0.18654 0.738405 0.561321 -0.66486
4922 2 23.3284 6.06208 46.9052 0.178089 -0.0200248 -0.363765 -1.08968
4923 2 14.591 5.98955 48.5295 0.184775 0.0668395 -0.0230179 -0.843686
4924 2 12.9347 9.04481 46.4663 0.173436 -0.122955 -0.0637872 -0.0486893
4925 2 21.1378 12.3407 45.4925 0.197573 0.900973 0.0823362 -0.87323
4926 2 14.1964 1.43614 41.399 0.191967 -0.269913 -0.893414 -0.504713
4927 2 22.4956 4.4412 41.43 0.192201 -0.127723 -0.712845 0.0114822
4928 2 13.8884 8.50162 44.656 0.198296 -0.452541 0.734607 -0.304649
4929 2 24.6927 3.31269 39.0134 0.20512 -0.58517 -0.616118 0.653874
4930 2 18.7145 6.21303 38.8903 0.193662 -0.36565 -0.147108 -0.349931
4931 2 23.9542 7.84454 40.4771 0.211357 -0.999082 0.73275 0.890558
4932 2 15.3957 3.43365 41.9331 0.177574 -0.387578 0.390205 0.211162
4933 2 17.4786 11.1592 48.6264 0.202761 -0.0204269 -0.174302 -0.380654
4934 2 20.0514 12.3952 40.3584 0.188291 0.958758 -0.893835 3.10156
4935 2 18.3874 9.67781 46.6899 0.202079 -0.813277 -0.330255 1.36658
4936 2 17.3696 11.4508 38.3008 0.192544 -0.271788 0.143957 -0.297279
4937 2 21.3553 11.6755 39.0099 0.181241 -0.965639 1.59721 1.75473
4938 2 24.504 1.34074 46.8779 0.175699 -0.298667 1.0986 1.77597
4939 2 16.6094 7.27878 49.134 0.185528 -1.01991 0.0650505 0.654268
4940 2 15.1156 3.09371 38.375 0.196107 0.358362 0.320632 0.0646096
4941 2 24.3527 10.5909 42.9044 0.209831 0.122657 -0.499177 1.66695
4942 2 16.6962 7.23206 39.5024 0.190545 0.350701 -0.495118 -0.246691
4943 2 23.2363 9.19918 47.5262 0.190551 -0.0307604 -0.227416 -0.00756508
4944 2 23.1431 6.2071 42.7829 0.199508 0.313051 -0.348179 -0.0925174
4945 2 13.9442 4.90449 37.8699 0.190103 -0.281465 -0.0725699 0.299326
4946 2 14.3953 5.35223 41.9351 0.201802 0.513692 -0.255178 -0.120031
4947 2 22.4728 9.63748 39.8078 0.195576 -0.162486 -0.797005 1.42874
4948 2 20.8551 6.42389 48.3724 0.182907 0.158761 1.07402 1.01345
4949 2 21.0243 4.30316 39.3464 0.17258 -0.277631 0.60624 0.698209
4950 2 15.5632 4.27212 45.7527 0.187512 -0.462492 0.389947 0.24625
4951 2 17.5622 5.53751 43.9346 0.199665 0.118747 0.0338989 0.489253
4952 2 16.4179 9.58131 41.2247 0.200028 -0.138133 0.328544 -0.317052
4953 2 18.615 3.62307 41.24 0.179979 0.0770457 0.608311 0.0798248
4954 2 23.8306 2.92483 48.3271 0.184977 0.415748 -0.622945 0.207542
4955 2 18.4003 8.02289 41.5953 0.205755 1.29093 0.884494 -0.0646729
4956 2 19.2628 5.88986 47.1524 0.200863 1.66277 -0.262602 0.211172
4957 2 14.2729 6.57756 43.4813 0.18528 -0.54724 -0.130536 -0.515391
4958 2 22.6486 8.35238 44.2134 0.18713 -0.990001 0.479789 0.024689
4959 2 21.1993 4.67542 44.4514 0.193337 -1.05841 -0.478424 -0.647356
4960 2 17.2918 1.08148 48.709 0.193533 0.384762 -0.0475958 0.0510165
4961 2 14.8148 11.7075 41.0261 0.187923 -0.930392 -0.053091 0.102607
4962 2 14.4787 6.10698 46.2691 0.194245 0.448397 -0.271609 0.51164
4963 2 18.5026 8.47981 37.9407 0.186437 1.35803 0.916054 0.945871
4964 2 24.5529 7.05075 48.1494 0.183827 0.273662 0.552395 -0.000566547
4965 2 19.2464 3.45351 44.646 0.17505 -1.06869 -0.191245 1.36416
4966 2 19.9661 1.97806 46.4288 0.172715 0.193407 -0.489593 0.171938
4967 2 13.6998 2.25455 43.5184 0.198496 -0.112087 0.305106 -1.70664
4968 2 21.7563 1.19183 43.6759 0.179239 0.322781 1.61927 -0.887711
4969 2 21.2864 2.90312 49.0219 0.190564 0.00537348 0.137382 -0.00327782
4970 2 13.8331 9.45463 38.1902 0.200762 -0.187071 -0.173276 -0.0619013
4971 2 24.5823 3.22091 44.8325 0.197198 2.26416 -0.898469 0.0529504
4972 2 23.8332 0.919544 38.665 0.192939 0.747742 -0.235035 -0.605081
4973 2 19.879 1.82274 38.5789 0.193725 0.527879 -0.283902 -2.11415
4974 2 21.5824 9.40806 45.6131 0.179214 0.487335 -0.614153 2.28277
4975 2 15.4217 11.6575 44.2088 0.188266 0.191599 -0.953814 0.169109
4976 2 19.9324 10.4314 41.8078 0.18086 0.836931 1.35769 0.421373
4977 2 19.143 9.41144 44.8071 0.204756 1.81299 -0.150781 -0.684594
4978 2 19.7255 10.7797 48.2707 0.190883 -0.336943 -0.0560082 -0.246758
4979 2 17.917 1.07607 42.4635 0.20137 -0.569092 0.408445 -0.957208
4980 2 14.365 11.5787 38.9618 0.179845 -0.411914 0.6815 -1.14625
4981 2 17.4944 10.5552 44.5853 0.213613 -0.0830755 -0.459556 -0.133551
4982 2 22.1666 5.50321 38.4569 0.181064 -0.0105539 0.711987 -0.74785
4983 2 14.1766 11.854 47.1551 0.202851 -0.0412957 -0.699532 0.436908
4984 2 18.4499 1.56688 40.008 0.175264 1.12469 -1.08519 -0.574124
4985 2 21.7888 7.20244 37.54 0.197347 -0.543359 0.580727 -0.230454
4986 2 23.157 6.56821 45.2961 0.181431 -0.37662 -1.22981 1.45787
4987 2 14.314 7.02466 49.6979 0.190704 0.241868 -0.0427809 -0.00249912
4988 2 13.5153 9.15485 47.9252 0.187276 -2.01303 -0.592091 -1.05081
4989 2 22.6259 12.3875 45.4733 0.192161 1.35993 0.351063 0.387423
4990 2 13.3538 2.55955 40.6197 0.175405 0.88183 -1.02969 2.39694
4991 2 21.781 3.00166 41.5247 0.200347 0.757429 0.925527 -0.633209
4992 2 13.5462 10.0855 44.5254 0.213814 0.778207 0.787739 -0.281373
4993 1 11.8277 15.0086 39.5102 -0.425411 0.212282 0.917283 -0.20128
4994 1 5.35905 18.4433 39.1423 -0.356698 -0.0295213 0.471277 -1.02219
4995 1 12.1674 19.7843 40.0445 -0.381781 1.0614 -1.10818 -1.30519
4996 1 3.37789 16.7238 42.1747 -0.398767 1.19983 -0.621863 -0.817896
4997 1 4.5393 24.1749 49.2356 -0.353781 0.647554 0.714193 0.366066
4998 1 7.33763 12.6263 39.5162 -0.380402 -0.828544 0.959109 -1.97816
4999 1 5.72643 22.3477 47.6428 -0.424748 0.360511 0.237653 0.291279
5000 1 5.31937 23.6393 39.16 -0.354795 0.0399682 -0.622553 0.39122
5001 1 9.38742 23.587 38.4322 -0.384216 0.474364 -0.88648 -0.0313405
5002 1 12.061 13.0846 46.2523 -0.431645 1.09952 0.596952 -1.21073
5003 1 5.00661 20.1657 49.075 -0.334919 1.40119 -0.158854 -0.737983
5004 1 3.63762 15.633 38.4176 -0.331763 0.656527 1.46497 -0.00794594
5005 1 11.8821 23.344 42.0321 -0.392807 0.0463269 0.551064 -2.41528
5006 1 3.87988 20.4925 39.8451 -0.46747 -0.513733 0.477598 0.18741
5007 1 9.82034 21.6048 47.511 -0.368154 -0.0137986 1.44396 0.448433
5008 1 11.0023 17.7563 42.5052 -0.32153 0.230448 -0.182538 1.39645
5009 1 0.969186 16.5622 38.1749 -0.353846 0.971238 1.10472 -0.269299
5010 1 1.23825 18.4345 42.0944 -0.377134 0.496568 0.974222 -0.52145
5011 1 10.0991 21.5354 40.6565 -0.354914 1.26396 0.627437 -3.10141
5012 1 8.39439 18.1667 47.725 -0.38027 0.994782 -0.884691 -2.20554
5013 1 8.06046 17.1644 38.6311 -0.371374 0.751672 -3.14508 -0.521624
5014 1 3.22651 15.7845 45.5923 -0.406128 2.66723 -0.454065 -0.168671
5015 1 5.02286 18.6506 44.6214 -0.411249 -0.5907 0.867401 -0.261572
5016 1 3.9402 22.9975 41.292 -0.402059 0.592219 1.07365 -0.329795
5017 1 6.25135 17.0058 41.5438 -0.381487 -0.602673 -0.75718 -0.489415
5018 1 12.1775 14.794 48.4457 -0.381492 -1.17763 -0.577028 1.09661
5019 1 6.76109 21.0122 41.4051 -0.401058 -1.0843 -0.653859 -0.215339
5020 1 5.87148 18.2876 47.1269 -0.34883 -2.85002 0.628366 -0.297102
5021 1 2.17682 19.3553 44.3213 -0.403496 0.0105027 0.798935 1.84709
5022 1 10.8902 20.1324 44.1146 -0.353417 0.835682 0.204953 -0.055803
5023 1 8.02913 16.7221 43.9026 -0.324012 0.906749 -0.138143 0.0192727
5024 1 5.2912 14.3651 48.8966 -0.421449 -1.08364 0.906581 0.716583
5025 1 1.5273 24.608 40.7858 -0.406884 0.708216 -0.743715 0.265494
5026 1 2.04097 17.9334 47.0471 -0.302257 -0.811299 0.80499 -1.7095
5027 1 6.65919 21.4928 38.5448 -0.336683 -1.40279 -1.0234 -0.760282
5028 1 11.7509 18.6237 48.3447 -0.37232 -0.12821 0.0218824 -0.0239392
5029 1 6.10486 15.5101 45.2933 -0.3842 0.711798 -0.806123 -1.72028
5030 1 8.22086 13.8256 46.7639 -0.395051 -0.988976 0.55887 -0.404473
5031 1 1.31371 14.4656 44.4251 -0.381652 0.75088 -0.0427505 1.0796
5032 1 9.47726 14.5552 43.2535 -0.383703 -0.65686 -2.42202 1.28824
5033 1 9.33201 15.783 48.3027 -0.414567 0.656275 0.0428369 -0.216091
5034 1 1.3107 20.9346 38.1446 -0.394595 -0.442595 -1.39787 0.413743
5035 1 11.2503 15.9247 44.8442 -0.366044 -2.39607 1.09189 -0.36437
5036 1 11.6997 12.7743 37.9344 -0.383512 -1.79395 -0.189159 0.983741
5037 1 7.62923 14.4858 37.6158 -0.388769 0.0567953 0.449263 1.34638
5038 1 8.8607 21.9634 44.7307 -0.389949 -0.227667 0.96358 -1.76446
5039 1 2.00579 23.9842 44.2256 -0.408501 0.0789691 -0.0578528 0.114644
5040 1 8.02194 23.7163 41.9962 -0.388376 -1.39855 -1.55775 -0.567101
5041 1 5.82003 21.623 45.0434 -0.318383 -1.31211 0.669597 1.00979
5042 1 8.10942 23.634 48.5542 -0.345318 0.54276 1.47824 -0.541383
5043 1 5.94066 13.286 43.2461 -0.427043 0.380581 0.290463 -0.177681
5044 1 1.87984 24.105 37.9732 -0.445729 0.26329 -0.733409 0.427672
5045 1 4.65962 23.7245 44.0628 -0.358088 -0.108154 -0.749111 -0.865857
5046 1 10.3147 18.7065 38.2241 -0.323722 0.84501 -0.606111 0.596779
5047 1 2.0116 23.5181 47.6621 -0.383376 -1.05507 1.32229 1.64296
5048 1 5.3606 14.5043 40.4764 -0.36661 -1.86117 1.63249 -0.507359
5049 1 8.56134 20.0321 49.509 -0.412514 -1.00693 0.194735 0.044041
5050 1 10.5137 18.2604 45.993 -0.390531 0.568913 1.14408 0.621383
5051 1 2.3683 18.6717 49.4363 -0.417393 -0.317789 0.621904 0.845087
5052 1 0.300813 21.2159 47.3836 -0.383269 1.8583 0.769691 0.932007
5053 1 9.47058 24.5757 44.9031 -0.325314 -1.67176 0.0228624 0.398241
5054 1 1.41009 14.7656 41.5001 -0.407723 -0.4134 1.42313 -1.2899
5055 1 9.69427 16.1374 40.8904 -0.38238 -0.479101 -0.427008 0.178624
5056 1 0.747499 21.6658 44.7247 -0.389105 0.0754067 -1.7219 0.310035
5057 2 11.0808 15.3148 40.0805 0.190423 0.565237 0.230029 -0.53904
5058 2 5.50656 17.9518 39.9266 0.194854 0.215904 -0.893033 1.46441
5059 2 0.229506 19.2335 40.626 0.201877 0.654706 -0.341521 1.02737
5060 2 4.28853 16.6221 41.7964 0.17689 -0.993311 0.582132 0.71289
5061 2 3.62438 23.9934 49.0885 0.194895 -1.47814 -0.166087 -0.0334462
5062 2 6.54604 24.5201 39.3347 0.178216 -0.548216 -0.382119 -0.170312
5063 2 5.3744 21.5945 48.1832 0.192346 0.242513 0.0423446 -0.735177
5064 2 5.74814 22.7627 38.9631 0.183284 0.00329845 0.270269 0.137159
5065 2 8.71139 23.5108 37.7443 0.177152 0.295719 -0.043505 -0.787918
5066 2 0.265931 13.4709 45.6079 0.175588 -0.801034 -0.768865 0.155099
5067 2 5.45643 19.5188 48.4819 0.179574 0.121846 0.439234 0.212308
5068 2 3.84791 16.6134 38.3862 0.193529 -0.494413 -1.69454 0.0433651
5069 2 11.5426 22.6277 41.4768 0.191198 -0.165942 0.146767 0.134836
5070 2 2.99116 20.6208 39.4826 0.185353 0.441312 -0.176377 -0.00917513
5071 2 9.52389 22.4771 47.8932 0.184818 0.0624616 -0.97217 -0.532412
5072 2 11.177 17.2951 43.376 0.172818 -0.346049 0.234142 -1.1318
5073 2 0.673327 16.2109 49.7646 0.174505 -0.144455 -0.385816 0.26112
5074 2 0.437698 17.9581 42.217 0.192111 -1.33243 -0.734919 0.246334
5075 2 9.50769 21.9129 41.273 0.200231 -1.03598 0.655823 0.889311
5076 2 9.09495 18.3191 47.0077 0.183724 -1.11808 -0.0690312 0.936245
5077 2 7.91665 16.2646 38.1344 0.155662 -0.302635 2.14357 0.493622
5078 2 4.24324 15.6642 45.5412 0.189217 -1.94904 0.243236 0.0286831
5079 2 5.27725 18.3384 45.508 0.18834 0.309746 -0.202986 -0.0488079
5080 2 4.44572 23.3465 40.4736 0.185995 -0.511136 -0.634946 0.896134
5081 2 6.93472 17.003 42.2124 0.198092 0.340966 0.224368 0.335649
5082 2 11.872 14.058 49.0943 0.176519 0.630659 1.22476 -1.08748
5083 2 6.79165 20.9786 40.4362 0.177085 0.21128 0.249292 -0.0574774
5084 2 5.62043 17.4379 47.4632 0.221306 -0.0631862 -0.70551 0.25883
5085 2 3.09715 19.1151 44.3123 0.191011 0.987125 -0.0429382 0.145764
5086 2 11.72 20.6628 44.1837 0.192466 -0.28409 -0.383152 0.0268299
5087 2 8.41711 15.8887 43.5223 0.177796 0.0805422 0.208901 0.337078
5088 2 4.63 14.8108 49.4906 0.182506 0.890856 -0.0385882 -0.504572
5089 2 0.748597 24.1358 41.1857 0.194513 0.897137 0.313935 0.0201751
5090 2 1.09684 17.7509 47.0591 0.198071 -0.297326 -0.678398 0.557176
5091 2 7.53886 21.5558 38.1553 0.190958 -0.207398 -0.525122 -0.137559
5092 2 11.3623 18.6513 49.2468 0.190722 -0.0575362 -0.127617 -0.354198
5093 2 5.847 14.6493 44.8683 0.183833 0.475834 0.99885 0.28235
5094 2 8.80539 14.4411 47.2328 0.184265 0.194943 0.156762 0.0639008
5095 2 2.17045 14.8606 44.7968 0.20287 -0.948831 -0.022804 -0.276835
5096 2 10.0977 14.9685 43.881 0.181107 0.235623 -0.0747914 -0.109555
5097 2 9.07282 16.7322 48.2454 0.185675 -0.291768 -0.453622 0.0132717
5098 2 0.642482 20.5639 38.788 0.199827 0.611258 0.774733 -0.415356
5099 2 11.1202 16.6511 45.479 0.201334 -0.106149 0.135089 0.0620816
5100 2 11.0296 24.4764 37.91 0.19505 0.763185 1.12414 0.0246198
5101 2 6.83774 14.2978 49.5339 0.188926 -0.647493 0.119347 -0.115141
5102 2 9.14056 22.9068 44.589 0.183347 -0.325514 -0.401564 -0.364448
5103 2 1.74631 24.8912 44.1343 0.184271 -0.973893 0.859806 -0.0360025
5104 2 7.38202 24.3245 42.4029 0.178956 0.212244 -0.16834 0.0945328
5105 2 5.58631 20.745 44.7726 0.219438 -0.110887 -1.08099 -0.321915
5106 2 8.15562 24.5728 48.1994 0.196143 -0.323246 -1.49187 0.501985
5107 2 5.48492 12.5134 43.6538 0.190581 -0.0221157 0.159722 0.0182435
5108 2 0.999252 24.4347 37.7497 0.188802 0.00112978 0.181879 0.300549
5109 2 4.53954 23.398 43.123 0.182607 -0.0126378 0.107292 0.901122
5110 2 10.9262 18.7382 38.9726 0.203358 0.408622 0.64908 0.0274479
5111 2 2.5058 23.0022 47.0914 0.220138 1.53258 -1.28731 -1.86605
5112 2 4.74292 14.8557 39.7584 0.186367 0.718938 -0.554369 1.12632
5113 2 8.84493 20.7176 48.909 0.185954 0.615947 0.290169 -0.439631
5114 2 10.8872 18.5026 46.9227 0.178015 -0.125161 -0.426935 -1.4747
5115 2 2.14802 18.4458 48.5056 0.180713 0.270956 0.167001 0.0600004
5116 2 0.482417 21.5125 46.4578 0.169667 -0.214491 -0.258221 0.341481
5117 2 8.68792 24.7845 45.4765 0.199035 0.796203 0.117155 -0.72571
5118 2 1.76617 13.8751 41.3977 0.192265 -0.467327 -0.464595 -0.48939
5119 2 10.0631 16.8816 41.4283 0.193069 -0.134521 -0.69756 0.0635991
5120 2 1.44057 20.9377 44.6496 0.196788 -0.607959 0.977972 -0.241184
5121 2 12.2591 15.7635 38.9868 0.206147 -0.879523 -1.01172 1.03956
5122 2 6.2613 18.6542 38.8844 0.196754 0.0489183 -0.114154 -0.390063
5123 2 11.5032 20.2953 40.4685 0.210333 -1.06551 0.771127 1.01322
5124 2 2.95826 15.8777 41.9401 0.17807 -0.444051 0.187513 0.112948
5125 2 5.0372 23.6222 48.6347 0.203473 0.270416 -0.486576 -0.713174
5126 2 7.60503 24.8203 40.3621 0.186592 0.811975 -0.651093 2.45132
5127 2 5.9449 22.117 46.7102 0.201767 -0.654633 -0.392077 0.735835
5128 2 4.93379 23.9029 38.2992 0.192439 -0.374409 0.213617 -0.404149
5129 2 8.90219 24.1327 39.036 0.178687 -0.287563 0.777286 0.808292
5130 2 12.0682 13.818 46.8748 0.168889 -0.379823 -0.0380101 0.968805
5131 2 4.16655 19.7355 49.1265 0.187294 -1.49318 -0.245978 0.639957
5132 2 2.67074 15.5381 38.3737 0.196991 0.201632 0.32482 0.060154
5133 2 11.8841 23.0347 42.8986 0.21161 0.111285 -0.630746 2.15317
5134 2 4.27531 19.6776 39.491 0.188176 0.021964 0.014488 -0.0518281
5135 2 10.7929 21.6527 47.5174 0.191642 -0.0448565 -0.224535 0.00739546
5136 2 10.6949 18.6421 42.7626 0.201515 0.217625 -0.0267574 0.0438083
5137 2 1.49878 17.3502 37.8606 0.188849 -0.384481 -0.260509 0.511235
5138 2 1.94712 17.8044 41.939 0.203311 0.744917 -0.441665 -0.161868
5139 2 10.0375 22.0889 39.7919 0.194926 -0.198355 -1.10338 2.00999
5140 2 8.40513 18.8732 48.3705 0.182571 0.212064 1.01561 0.901306
5141 2 8.58387 16.739 39.3481 0.16974 -0.445372 0.749502 0.36807
5142 2 3.11226 16.727 45.7267 0.185375 -0.35178 -0.0346571 0.17356
5143 2 5.11153 17.9954 43.9306 0.203246 0.179443 -0.290134 0.187234
5144 2 3.96739 22.0423 41.2239 0.200736 -0.124626 -0.30449 -0.355272
5145 2 6.17382 16.081 41.2199 0.18092 0.0737948 0.402274 0.0619309
5146 2 11.3923 15.3677 48.3037 0.184972 0.345938 -0.573611 0.249807
5147 2 5.9496 20.4811 41.5752 0.205761 0.977501 0.670169 0.146993
5148 2 6.80035 18.3403 47.1746 0.201668 2.67553 -0.221008 0.211273
5149 2 1.82146 19.0527 43.4943 0.188825 -0.78706 -0.478739 -1.31389
5150 2 10.1927 20.7935 44.2184 0.186513 -0.642527 0.219955 -0.0217985
5151 2 8.75692 17.0985 44.4487 0.193048 -0.994766 -0.286788 -0.501924
5152 2 4.83247 13.543 48.7271 0.194304 0.167957 -0.754695 -0.190926
5153 2 2.3772 24.1568 41.028 0.188754 -1.17504 0.0161601 0.0571854
5154 2 1.99928 18.5533 46.2832 0.194965 0.710029 -0.0738545 0.316674
5155 2 6.05293 20.9215 37.9453 0.184759 1.39125 0.961554 0.960701
5156 2 12.1123 19.4954 48.1475 0.182113 0.200489 0.376165 0.0337859
5157 2 6.81295 15.8981 44.637 0.173529 -1.35364 -0.320722 1.60476
5158 2 7.51793 14.4399 46.4276 0.170622 0.556124 -0.86834 0.333473
5159 2 1.25307 14.7128 43.5096 0.197961 -0.0500019 0.147473 -1.04284
5160 2 9.31208 13.6094 43.6848 0.17573 0.483721 2.4291 -1.18734
5161 2 8.85562 15.3445 49.0167 0.191718 -0.188432 -0.0256096 0.283902
5162 2 1.37558 21.8827 38.1764 0.20436 -0.144476 0.755586 0.0276449
5163 2 12.1308 15.6562 44.8357 0.196931 2.50633 -0.960993 0.0736858
5164 2 11.3808 13.3995 38.6703 0.188054 1.06489 -0.922727 -1.33885
5165 2 7.42224 14.2645 38.569 0.192661 0.570266 -0.31542 -1.77363
5166 2 9.15551 21.8663 45.6066 0.177694 0.47041 -0.73542 2.3312
5167 2 2.96416 24.1016 44.2143 0.189941 0.536615 -0.822622 0.135758
5168 2 7.50296 22.867 41.7903 0.181484 0.832999 1.62299 0.576589
5169 2 6.69846 21.8264 44.81 0.206135 2.15098 -0.0519115 -0.74627
5170 2 7.28739 23.2158 48.2719 0.191163 -0.407855 -0.00503643 -0.28562
5171 2 5.44831 13.5162 42.4523 0.197741 0.0389249 0.18372 -0.0521834
5172 2 1.90973 24.022 38.9459 0.181259 -0.301515 0.59367 -0.500148
5173 2 5.06913 22.9898 44.5936 0.210786 -0.454483 0.168697 -0.625419
5174 2 9.73909 17.9651 38.4468 0.184728 -0.779533 -0.254274 -0.493949
5175 2 1.72096 24.286 47.164 0.206155 -0.267194 -0.027849 -0.0254818
5176 2 6.01974 14.018 40.0173 0.17488 1.00851 -0.984776 -0.483394
5177 2 9.34543 19.6482 37.539 0.199196 -0.406228 0.54238 -0.171768
5178 2 10.7114 19.0027 45.3132 0.184708 -0.249005 -0.821513 1.08101
5179 2 1.86052 19.4753 49.7105 0.188245 0.546689 -0.460565 -0.161951
5180 2 1.07206 21.6202 47.9207 0.184085 -2.20198 -0.762038 -1.1403
5181 2 10.1798 24.8401 45.4812 0.192238 1.17742 0.304129 0.27653
5182 2 0.942598 15.0155 40.6191 0.177962 0.660709 -1.00923 2.09854
5183 2 9.34483 15.4421 41.5006 0.2027 0.64154 0.764672 -0.380044
5184 2 1.10668 22.5413 44.5389 0.212738 0.701072 0.502286 -0.259529
5185 1 24.276 15.0037 39.516 -0.424815 0.366381 0.869185 -0.325455
5186 1 17.8029 18.4457 39.1417 -0.356508 0.389042 0.121258 -0.437803
5187 1 24.616 19.7862 40.0446 -0.369758 -0.212961 -0.0015887 -1.57395
5188 1 15.822 16.7273 42.1742 -0.401607 1.25976 -0.113527 -0.587591
5189 1 16.9891 24.1744 49.2365 -0.347639 0.622962 0.933776 0.513443
5190 1 19.7821 12.625 39.519 -0.383247 -0.942994 1.16833 -2.63069
5191 1 18.1747 22.3447 47.6438 -0.427619 0.275514 0.265716 0.472217
5192 1 17.7638 23.6362 39.1621 -0.350308 -0.20817 -0.397284 -0.181595
5193 1 21.8325 23.5876 38.4345 -0.388697 1.13007 -2.02508 -1.6278
5194 1 24.5084 13.0834 46.2519 -0.433471 1.04443 0.285451 -1.36081
5195 1 17.4517 20.166 49.0779 -0.333815 1.07969 -0.365645 -0.741113
5196 1 16.0829 15.6337 38.4137 -0.331695 0.575875 0.962765 0.0492268
5197 1 24.3242 23.3459 42.0347 -0.396728 0.15219 0.770119 -2.21053
5198 1 16.3236 20.4941 39.8437 -0.463424 -0.67555 0.214004 -0.0856561
5199 1 22.264 21.6059 47.5138 -0.3645 -0.48572 1.59754 0.505576
5200 1 23.4452 17.7534 42.506 -0.322599 0.123355 0.0324855 1.99604
5201 1 13.4169 16.5644 38.1729 -0.354399 0.958464 1.10685 -0.322833
5202 1 13.6849 18.4375 42.0933 -0.365436 -0.384735 1.0589 -0.352004
5203 1 22.5443 21.5365 40.653 -0.352371 1.01657 0.531923 -2.48082
5204 1 20.8368 18.1632 47.7258 -0.367702 0.705065 -0.924714 -2.14486
5205 1 20.5039 17.1661 38.6354 -0.366344 0.900836 -2.92372 -0.29185
5206 1 15.6745 15.7864 45.5945 -0.400482 2.04421 -0.521835 -0.185494
5207 1 17.4657 18.6587 44.6251 -0.410609 -0.387139 -0.0346628 -0.724808
5208 1 16.3873 22.9949 41.2834 -0.409002 0.512725 0.843882 -0.171447
5209 1 18.6949 17.0009 41.5429 -0.378542 0.0611892 -1.15266 0.129407
5210 1 24.6254 14.7933 48.4475 -0.377471 -0.988753 -0.283275 0.792625
5211 1 19.1987 21.0145 41.4019 -0.405937 -0.678602 -0.400986 -0.366068
5212 1 18.3133 18.2859 47.1208 -0.34903 -1.34127 0.788697 -0.250604
5213 1 14.625 19.355 44.3218 -0.401796 -1.02227 0.711761 1.20198
5214 1 23.3341 20.1326 44.1161 -0.351904 0.894589 0.350092 -0.0170572
5215 1 20.4766 16.7225 43.9066 -0.329073 0.117833 -0.0278316 -0.318076
5216 1 17.7342 14.3677 48.8954 -0.419412 -0.884965 0.125524 0.26367
5217 1 13.9762 24.6078 40.7819 -0.408248 -0.253638 -0.72854 0.319544
5218 1 14.485 17.9334 47.0449 -0.308298 -0.63607 0.898847 -2.01182
5219 1 19.1082 21.4948 38.5447 -0.338733 -1.3547 -0.91848 -0.636178
5220 1 24.1969 18.6227 48.3419 -0.374335 -0.0439683 -0.21247 -0.390648
5221 1 18.5531 15.5164 45.2966 -0.383356 0.445414 -1.18062 -1.77176
5222 1 20.6643 13.8229 46.765 -0.394625 -0.505462 0.950728 -0.0599875
5223 1 13.7551 14.4618 44.4246 -0.382801 1.28317 -0.199121 2.58833
5224 1 21.9232 14.5535 43.2506 -0.387795 -0.0695022 -1.0043 1.24407
5225 1 21.7727 15.784 48.3059 -0.414495 0.563732 -0.325732 0.010709
5226 1 13.7546 20.9356 38.1444 -0.387512 -0.179655 -1.45367 0.129715
5227 1 23.6914 15.9237 44.848 -0.360921 -2.36228 0.56713 -0.89152
5228 1 24.1454 12.7721 37.9321 -0.37499 -1.91546 -0.119822 1.13247
5229 1 20.0742 14.4862 37.6109 -0.386186 0.725611 0.597778 1.82129
5230 1 21.3048 21.9657 44.7338 -0.389964 -0.359791 0.722069 -1.90578
5231 1 14.4566 23.9813 44.2228 -0.407887 0.102459 -0.333031 0.149397
5232 1 20.464 23.7165 41.9924 -0.383587 -1.87059 -0.970437 -0.115176
5233 1 18.2673 21.6247 45.0411 -0.327542 -0.824899 0.229894 0.695319
5234 1 20.5531 23.6375 48.5542 -0.344489 0.976689 1.81608 -0.399336
5235 1 18.3839 13.2837 43.247 -0.42585 0.252792 0.0794369 -0.01931
5236 1 14.3267 24.1061 37.9764 -0.448167 0.217556 -0.814104 1.05637
5237 1 17.1097 23.7272 44.0668 -0.348826 -0.413011 -0.213964 -1.23228
5238 1 22.7627 18.7041 38.2194 -0.328378 1.2921 -0.891983 1.74343
5239 1 14.4567 23.5166 47.6636 -0.382827 -0.636923 1.33433 0.413942
5240 1 17.8062 14.5025 40.4741 -0.364799 -1.84193 1.55575 -0.779258
5241 1 21.0031 20.0328 49.505 -0.419237 -0.444499 0.251351 0.0571237
5242 1 22.953 18.2544 45.9942 -0.396373 0.489326 1.2715 0.243044
5243 1 14.8155 18.6731 49.4345 -0.417198 -0.531687 1.01259 1.26834
5244 1 12.7464 21.2182 47.3819 -0.381943 1.87657 0.606916 1.39051
5245 1 21.9114 24.5704 44.9 -0.324631 -0.849138 0.159207 0.672317
5246 1 13.8528 14.7657 41.5014 -0.415112 -0.929012 2.03746 -1.57279
5247 1 22.1326 16.1325 40.8954 -0.384089 -0.0927749 0.408976 -0.325794
5248 1 13.1911 21.6663 44.7255 -0.391153 0.262417 -1.71664 0.259552
5249 2 23.5513 15.3287 40.0863 0.189209 0.204498 0.190249 -0.261819
5250 2 17.9547 17.94 39.9331 0.192277 0.0830583 -0.504408 0.817455
5251 2 12.7013 19.2359 40.6398 0.200674 -0.00280787 0.341571 0.338687
5252 2 16.7271 16.6302 41.7935 0.17866 -0.83289 0.541065 0.636911
5253 2 16.0773 23.9955 49.0897 0.195416 -1.72039 -0.17357 -0.0473346
5254 2 18.9764 24.5104 39.3155 0.175768 0.0360128 -0.0702355 0.134638
5255 2 17.8187 21.5929 48.1839 0.192899 0.251436 0.0492802 -0.778382
5256 2 18.1791 22.7551 38.9626 0.182937 0.0610536 0.281469 0.165246
5257 2 21.1582 23.5213 37.7302 0.178122 0.566149 -0.01663 -0.443851
5258 2 12.7069 13.4782 45.6071 0.174762 -0.854004 -0.844506 0.1792
5259 2 17.9127 19.5246 48.4859 0.178964 0.0892464 0.471139 0.237504
5260 2 16.279 16.6044 38.389 0.195719 -0.38693 -1.2295 0.0176448
5261 2 24 22.635 41.4727 0.193478 -0.253678 -0.0685781 0.0968878
5262 2 15.4355 20.5984 39.4637 0.181333 0.537602 -0.0520771 0.135434
5263 2 21.9711 22.4829 47.8958 0.184736 0.0104032 -1.07086 -0.570141
5264 2 23.6253 17.2792 43.3913 0.169784 -0.496126 0.634961 -1.68359
5265 2 13.1214 16.2014 49.7816 0.178377 -0.410596 -0.680404 -0.538157
5266 2 12.8795 17.9507 42.2116 0.19145 -0.984029 -0.426899 0.200598
5267 2 21.9562 21.9224 41.2743 0.199741 -0.851482 0.505442 0.795763
5268 2 21.515 18.348 47.0103 0.184916 -0.803721 -0.159586 0.684673
5269 2 20.3676 16.277 38.1413 0.157816 -0.374565 1.91414 0.319969
5270 2 16.672 15.6846 45.546 0.190967 -1.24688 0.0214057 -0.0268085
5271 2 17.6942 18.3451 45.5298 0.186571 0.290725 -0.0951591 -0.438019
5272 2 16.8909 23.3553 40.4717 0.18704 -0.471909 -0.717549 0.837097
5273 2 19.394 17.0112 42.2254 0.194161 -0.386836 0.20932 -0.371522
5274 2 24.3169 14.0641 49.0736 0.178426 0.553857 0.817166 -0.683346
5275 2 19.2302 20.9941 40.4288 0.177524 0.106587 0.190844 0.150033
5276 2 18.0738 17.4362 47.4619 0.219167 -0.0781226 -0.779891 0.296191
5277 2 15.5286 19.11 44.3127 0.191666 1.85591 -0.21962 0.189628
5278 2 24.1738 20.6568 44.1906 0.191843 -0.502555 -0.451137 0.00588626
5279 2 20.8375 15.896 43.5091 0.181953 0.367063 0.040219 0.355945
5280 2 17.0925 14.805 49.4969 0.185008 0.495023 0.0462672 -0.287535
5281 2 13.1751 24.1446 41.1853 0.194974 1.33721 0.509503 -0.176915
5282 2 13.5429 17.7493 47.0553 0.198098 -0.356938 -0.596984 0.497415
5283 2 19.9955 21.554 38.1708 0.192318 -0.276917 -0.53974 -0.180777
5284 2 23.8006 18.6463 49.2291 0.191793 -0.190667 -0.0901088 0.072971
5285 2 18.2965 14.6525 44.859 0.182043 0.488636 1.21067 0.466843
5286 2 21.2587 14.4547 47.2306 0.181531 -0.155072 -0.264725 -0.197534
5287 2 14.6254 14.8629 44.7963 0.203612 -1.32186 -0.188932 -0.391141
5288 2 22.5494 14.9827 43.8837 0.180279 -0.137202 -0.288937 -0.488488
5289 2 21.514 16.7283 48.2455 0.187042 -0.332351 -0.297182 0.00375233
5290 2 13.0871 20.5786 38.7773 0.2007 0.310309 0.561675 -0.116025
5291 2 23.5512 16.6409 45.4684 0.203579 -0.173412 0.643374 0.544766
5292 2 23.4803 24.4789 37.9165 0.195571 0.6391 1.04133 0.0292749
5293 2 19.2732 14.2921 49.5185 0.187635 -0.194373 0.231004 0.315969
5294 2 21.5784 22.9047 44.5969 0.184524 -0.225523 -0.15838 -0.398557
5295 2 14.1999 24.8846 44.1522 0.18525 -1.13348 1.18377 -0.0726723
5296 2 19.8064 24.3219 42.4123 0.174088 0.728725 -0.46518 -0.189301
5297 2 18.0376 20.7262 44.7878 0.217319 0.135812 -0.444731 -0.16593
5298 2 20.58 24.5791 48.2049 0.195362 -0.202265 -1.46777 0.506738
5299 2 17.9188 12.5043 43.6408 0.18773 0.163465 0.325738 0.112804
5300 2 13.4411 24.4328 37.7485 0.188443 0.183156 0.106562 0.450646
5301 2 16.9976 23.3901 43.1321 0.183593 -0.06155 0.132009 0.821359
5302 2 23.3911 18.752 38.9959 0.19846 -0.491375 0.52552 -1.05103
5303 2 14.9714 22.9845 47.0918 0.217749 0.770295 -0.435203 -1.06681
5304 2 17.1854 14.8471 39.7474 0.184453 0.815981 -0.557259 1.29359
5305 2 21.2845 20.719 48.8893 0.184528 0.530736 -0.067578 -0.0963236
5306 2 23.3273 18.491 46.9157 0.178056 -0.0734196 -0.355626 -1.30297
5307 2 14.5934 18.419 48.519 0.183662 0.200118 0.215317 -0.207565
5308 2 12.9306 21.5053 46.4614 0.171623 -0.110993 -0.128264 0.0996766
5309 2 21.1437 24.7751 45.4805 0.197934 0.468087 0.201246 -0.549196
5310 2 14.2084 13.8869 41.4104 0.193435 -0.2496 -0.968482 -0.568102
5311 2 22.4976 16.8842 41.4293 0.192848 -0.125715 -0.734862 -0.00232243
5312 2 13.8922 20.941 44.6486 0.196057 -0.746421 1.04805 -0.222972
5313 2 24.7044 15.7655 39.0125 0.20449 -0.734116 -0.970839 0.827558
5314 2 18.7136 18.6671 38.8997 0.194474 -0.241584 -0.161132 -0.334071
5315 2 23.9404 20.3016 40.4805 0.210628 -0.492862 0.345019 0.570118
5316 2 15.403 15.8908 41.9531 0.18127 -0.649328 -0.298256 -0.0416061
5317 2 17.4748 23.6068 48.6489 0.203572 0.497044 -0.648287 -0.903432
5318 2 20.0512 24.8398 40.3693 0.186337 0.669727 -0.662758 2.23106
5319 2 18.3826 22.1212 46.7108 0.201576 -0.594783 -0.455395 0.553853
5320 2 17.3688 23.9024 38.2884 0.191786 -0.12718 0.0579785 0.0710537
5321 2 21.3714 24.1202 39.0194 0.1845 -1.25415 1.89203 2.07629
5322 2 24.5137 13.8069 46.8754 0.170689 -0.359655 0.228549 1.13132
5323 2 16.6133 19.7158 49.1278 0.186206 -1.15285 -0.0638168 0.612505
5324 2 15.1184 15.5209 38.3899 0.198798 0.177692 0.344403 0.0400344
5325 2 24.335 23.0462 42.906 0.212347 0.0812591 -0.653411 2.00449
5326 2 16.7119 19.6719 39.4875 0.185768 0.0987306 0.165035 0.0890481
5327 2 23.2254 21.6666 47.519 0.192684 0.458072 -0.283389 -0.0145348
5328 2 23.1212 18.6508 42.756 0.199966 0.466308 -0.650172 -0.00113485
5329 2 13.9544 17.3506 37.8598 0.188653 -0.445278 -0.31895 0.52189
5330 2 14.378 17.8052 41.9531 0.203334 1.27845 -0.827726 -0.316623
5331 2 22.4677 22.089 39.8085 0.194954 -0.117716 -0.884616 1.48912
5332 2 20.8485 18.862 48.3739 0.183127 0.162335 1.18118 1.11154
5333 2 21.0321 16.7395 39.3514 0.170408 -0.505782 0.78636 0.336537
5334 2 15.5571 16.7213 45.746 0.186265 -0.469859 0.196038 0.223669
5335 2 17.5719 17.9827 43.9224 0.199296 0.0348964 0.523139 1.05383
5336 2 16.4174 22.0342 41.2242 0.201289 -0.100228 -0.0172851 -0.406381
5337 2 18.6085 16.0558 41.2469 0.178155 0.116544 0.820679 0.138281
5338 2 23.8418 15.3664 48.3238 0.185698 0.2391 -0.430633 0.137309
5339 2 18.403 20.4825 41.59 0.208447 0.672749 0.460601 0.0963425
5340 2 19.271 18.3422 47.1646 0.198088 1.17563 -0.313204 0.166377
5341 2 14.2762 19.0341 43.4821 0.187151 -0.639956 -0.206057 -0.706399
5342 2 22.6369 20.7995 44.212 0.18651 -0.511608 0.149489 -0.0209937
5343 2 21.1844 17.1118 44.4435 0.198022 -0.441274 -0.175572 -0.209037
5344 2 17.2897 13.5262 48.7055 0.194996 0.367945 -0.0839789 0.0442741
5345 2 14.806 24.1529 41.0289 0.189704 -0.669311 -0.2254 0.216448
5346 2 14.4673 18.5272 46.2484 0.194232 0.579303 -0.251504 0.66513
5347 2 18.4973 20.9362 37.9453 0.186771 1.41381 0.848385 0.885322
5348 2 24.556 19.4908 48.1469 0.183783 0.267927 0.572146 0.0074005
5349 2 19.2423 15.9002 44.6375 0.173776 -1.1283 -0.188265 1.49494
5350 2 19.968 14.4416 46.4317 0.169964 0.430132 -0.832426 0.263493
5351 2 13.6945 14.7017 43.532 0.200049 -0.166671 0.500485 -2.40009
5352 2 21.7546 13.6588 43.6835 0.179515 0.252702 1.24209 -0.797522
5353 2 21.2904 15.3363 49.0202 0.191407 -0.0534313 0.138805 0.063773
5354 2 13.8336 21.8785 38.1851 0.205555 -0.0995856 0.980047 0.00441774
5355 2 24.5714 15.6551 44.8441 0.198714 2.55835 -0.964547 0.0972426
5356 2 23.8216 13.3847 38.6799 0.188264 1.15626 -0.885712 -1.43262
5357 2 19.8673 14.2749 38.5692 0.19402 0.535205 -0.328835 -1.92038
5358 2 21.5933 21.8602 45.6078 0.178879 0.511386 -0.752175 2.47682
5359 2 15.4114 24.1078 44.2141 0.190146 0.658267 -0.860503 0.115487
5360 2 19.9358 22.8767 41.8065 0.17988 0.81989 1.34292 0.412271
5361 2 19.1471 21.8543 44.7845 0.204243 1.38328 -0.29333 -0.560088
5362 2 19.7462 23.2256 48.264 0.19186 -0.949263 -0.349368 -0.440913
5363 2 17.8844 13.5051 42.4595 0.19705 0.00830784 0.314019 -0.253695
5364 2 14.3643 23.9972 38.9651 0.179443 -0.430991 0.762579 -1.27527
5365 2 17.488 23.0049 44.5991 0.212881 -0.100217 -0.401548 -0.161213
5366 2 22.1656 17.9667 38.4569 0.181535 -0.349465 0.18926 -0.592427
5367 2 14.168 24.3066 47.1584 0.203788 0.0905898 -0.895194 0.408885
5368 2 18.4727 14.0259 40.0081 0.173708 0.887228 -0.900379 -0.346112
5369 2 21.7794 19.6414 37.5469 0.198364 -0.320148 0.506113 -0.148094
5370 2 23.1447 19.0039 45.3099 0.183644 -0.239725 -0.961996 1.21093
5371 2 14.2833 19.4779 49.7067 0.187552 0.845593 -0.832848 -0.331348
5372 2 13.5262 21.5987 47.9346 0.185874 -2.35014 -0.735535 -1.34069
5373 2 22.634 24.8309 45.4856 0.190711 0.688237 0.12339 -0.155924
5374 2 13.3522 15.0036 40.6158 0.175892 0.917585 -1.091 2.42182
5375 2 21.7951 15.4626 41.5038 0.203654 0.262715 -0.00419792 0.17166
5376 2 13.5561 22.5443 44.5539 0.211787 0.634934 0.424586 -0.250645
5377 1 11.8315 27.4436 39.5146 -0.421519 0.0434065 0.930845 -0.0669777
5378 1 5.36018 30.8908 39.1407 -0.35717 0.363654 0.14066 -0.439845
5379 1 12.1704 32.2285 40.046 -0.382181 0.00505168 -0.11428 -1.96612
5380 1 3.37823 29.1674 42.1758 -0.402159 0.593559 -0.241401 -0.406847
5381 1 4.54028 36.6203 49.2337 -0.356576 1.32548 0.442535 0.0528027
5382 1 7.33927 25.0688 39.514 -0.364209 0.0669332 1.46758 -1.54629
5383 1 5.72667 34.7913 47.6428 -0.422719 0.180264 -0.136863 0.54617
5384 1 5.31834 36.0781 39.1636 -0.362123 -0.0297399 -0.417442 0.0575658
5385 1 9.39531 36.0304 38.4386 -0.385009 0.617604 -1.88216 -1.65126
5386 1 12.0591 25.5264 46.2524 -0.430978 1.5197 0.58501 -1.74689
5387 1 5.0103 32.6095 49.0741 -0.333183 0.449535 0.0261787 -0.294462
5388 1 3.64281 28.0749 38.4128 -0.327896 0.276789 1.60277 0.0319232
5389 1 11.8805 35.7922 42.0328 -0.39331 0.174108 0.863012 -2.04367
5390 1 3.87874 32.939 39.8463 -0.463781 -0.544311 0.540428 0.198035
5391 1 9.82055 34.0494 47.5106 -0.366134 0.353463 2.00896 0.61795
5392 1 10.9965 30.1981 42.5068 -0.315736 0.0966797 0.236262 2.15447
5393 1 0.968462 29.0076 38.1762 -0.352035 0.64587 0.727582 -1.49067
5394 1 1.23562 30.8824 42.0944 -0.375407 -0.253883 0.454581 -0.384249
5395 1 10.1011 33.9812 40.6527 -0.353095 0.639076 0.760045 -2.08582
5396 1 8.38741 30.61 47.724 -0.370824 0.794504 -1.14325 -2.40216
5397 1 8.06256 29.6105 38.6321 -0.370624 0.844252 -3.16968 -0.385607
5398 1 3.23031 28.2279 45.591 -0.398487 2.21679 -0.267463 -0.159842
5399 1 5.017 31.0993 44.6241 -0.412091 -0.399329 0.335587 -0.165007
5400 1 3.94016 35.4368 41.2838 -0.400029 0.235818 0.824911 0.278194
5401 1 6.25035 29.4462 41.5446 -0.379703 0.00303972 -1.35062 -0.0356496
5402 1 12.1804 27.2391 48.4461 -0.381818 -0.719109 -0.482686 0.860453
5403 1 6.75902 33.46 41.4037 -0.403387 -0.957672 -0.626545 -0.622456
5404 1 5.87041 30.7284 47.124 -0.353014 -1.70656 0.830255 -0.337323
5405 1 2.18058 31.7957 44.3239 -0.403505 -0.589838 0.948363 1.88467
5406 1 10.8897 32.583 44.1162 -0.35157 0.520298 0.711753 0.0350749
5407 1 8.02873 29.1687 43.9041 -0.325017 0.547535 0.233452 0.0906866
5408 1 5.2891 26.81 48.8943 -0.423547 -0.88883 0.986432 0.641558
5409 1 1.53125 37.0481 40.786 -0.404905 0.733319 -0.624115 0.181612
5410 1 2.03568 30.38 47.0439 -0.31288 -0.588665 0.979533 -2.03588
5411 1 6.66294 33.9399 38.5404 -0.337926 -2.43948 -1.24966 -0.416551
5412 1 11.75 31.0709 48.3418 -0.376352 -0.0669318 0.206586 0.0737471
5413 1 6.10952 27.9608 45.2918 -0.390382 0.522506 -0.702377 -1.38507
5414 1 8.22136 26.2672 46.7622 -0.392917 -1.05246 0.480082 -0.468776
5415 1 1.31311 26.9112 44.4258 -0.384926 1.18971 0.263466 1.0261
5416 1 9.48037 26.9984 43.2574 -0.387508 -0.820732 -2.16464 0.888576
5417 1 9.3283 28.232 48.3073 -0.418873 0.666737 -0.227058 -0.166891
5418 1 1.31169 33.3804 38.144 -0.390732 -0.43762 -1.53844 0.346291
5419 1 11.2496 28.3666 44.8448 -0.363595 -2.2872 1.14904 -0.288368
5420 1 11.7023 25.2174 37.9356 -0.379425 -1.73054 -0.251014 0.866217
5421 1 7.6283 26.9302 37.6141 -0.392447 0.0718312 0.392174 1.53625
5422 1 8.86368 34.4095 44.7328 -0.384188 -0.439646 0.0700394 -1.51503
5423 1 2.01327 36.4283 44.2225 -0.410717 0.528786 -0.392656 0.153338
5424 1 8.01821 36.1593 41.9903 -0.386723 -1.61905 -0.501393 -0.0287989
5425 1 5.8224 34.0708 45.041 -0.32096 -1.14261 0.210131 0.790458
5426 1 8.10933 36.0816 48.5523 -0.346472 0.559024 1.58656 -0.585735
5427 1 5.943 25.7316 43.2439 -0.431203 0.356353 0.205861 -0.0611432
5428 1 1.88345 36.5499 37.9731 -0.445117 -0.647065 -0.470084 1.12306
5429 1 4.66022 36.1701 44.0671 -0.348857 -0.247157 -0.602551 -1.42892
5430 1 10.322 31.1492 38.2257 -0.32453 1.22537 -0.353748 0.855385
5431 1 2.00746 35.9624 47.6643 -0.384181 -0.338049 0.535606 0.875926
5432 1 5.36208 26.9506 40.4745 -0.364389 -1.65791 1.35313 -1.02838
5433 1 8.56092 32.4767 49.502 -0.421951 -0.387692 -0.0131699 0.348574
5434 1 10.5093 30.7011 45.9947 -0.391422 0.629694 1.42923 0.03979
5435 1 2.3732 31.1142 49.4328 -0.41271 -0.0120335 0.745841 1.69381
5436 1 0.299032 33.6601 47.3863 -0.376957 1.80488 0.598472 1.17149
5437 1 9.47181 37.0214 44.9032 -0.328943 -1.74194 0.184187 0.761798
5438 1 1.40956 27.2108 41.5053 -0.408715 -0.682517 1.60685 -1.54698
5439 1 9.68954 28.5823 40.8945 -0.383471 -0.2218 0.324813 0.481277
5440 1 0.749336 34.1091 44.7236 -0.385311 -0.29216 -1.98373 0.433447
5441 2 11.0872 27.7567 40.0793 0.189023 0.458067 0.123319 -0.389105
5442 2 5.50357 30.3959 39.9408 0.192878 0.122347 -0.494757 0.788525
5443 2 0.224502 31.6778 40.6146 0.203614 0.848455 -0.571124 1.34764
5444 2 4.27276 29.071 41.8059 0.180936 -0.272354 0.461209 0.386823
5445 2 3.62866 36.4489 49.094 0.195498 -1.81841 -0.251768 -0.11691
5446 2 6.53887 36.965 39.3233 0.176533 -0.22727 -0.240716 0.020807
5447 2 5.36892 34.0219 48.1794 0.190914 0.383233 0.402087 -0.910266
5448 2 5.74571 35.1963 38.9805 0.18312 -0.0605428 0.382006 0.0323497
5449 2 8.70056 35.954 37.7431 0.175237 0.867291 0.0173262 -0.248678
5450 2 0.271748 25.9257 45.6197 0.174658 -0.908811 -0.835309 0.229966
5451 2 5.46155 31.9841 48.485 0.181764 0.351485 -0.037044 -0.157958
5452 2 3.84458 29.0646 38.3992 0.193028 -0.542868 -1.95022 0.0121957
5453 2 11.5529 35.0763 41.4862 0.193591 -0.327306 -0.203589 -0.091551
5454 2 2.99737 33.0589 39.4696 0.183767 0.287876 -0.0748416 0.0121901
5455 2 9.52376 34.9383 47.8952 0.181877 0.173061 -1.45332 -0.722459
5456 2 11.1877 29.7251 43.3927 0.169251 -0.53027 0.577895 -1.72427
5457 2 0.683547 28.641 49.7743 0.177329 -0.282981 -0.530049 -0.146673
5458 2 0.429018 30.3846 42.2099 0.189049 -0.703852 -0.209716 0.145197
5459 2 9.50125 34.3697 41.2752 0.197722 -0.506762 0.269454 0.450849
5460 2 9.07561 30.7765 47.0085 0.185694 -0.869208 -0.0992052 0.770731
5461 2 7.92417 28.7101 38.1391 0.155345 -0.340964 2.11748 0.45316
5462 2 4.23232 28.1122 45.5299 0.190882 -1.48622 0.139792 0.0289841
5463 2 5.25671 30.7933 45.5321 0.186847 0.23511 -0.0672718 -0.540713
5464 2 4.42462 35.7791 40.4776 0.188066 -0.140828 -0.388136 0.3752
5465 2 6.94297 29.4524 42.2284 0.193779 -0.268485 0.259395 -0.244765
5466 2 11.8925 26.4969 49.0716 0.179295 0.464511 0.957824 -0.745987
5467 2 6.78685 33.4224 40.4246 0.175354 0.144883 0.247633 0.417996
5468 2 5.61855 29.8879 47.4775 0.220846 -0.0456781 -0.791657 0.299045
5469 2 3.08645 31.5489 44.3073 0.192021 1.67196 -0.203106 0.153137
5470 2 11.7281 33.113 44.1889 0.191493 -0.55752 -0.485106 0.0060764
5471 2 8.38665 28.3417 43.4997 0.182741 0.413465 0.120156 0.466679
5472 2 4.63502 27.2678 49.4845 0.184609 0.792581 -0.180646 -0.512431
5473 2 0.758538 36.5782 41.192 0.195284 0.790315 0.231102 0.0462644
5474 2 1.09614 30.1851 47.0574 0.198049 -0.347226 -0.588953 0.483544
5475 2 7.52724 34.0219 38.1647 0.194046 0.629816 -0.487688 -0.562807
5476 2 11.3607 31.097 49.2478 0.189796 0.0219532 -0.0994468 -0.533243
5477 2 5.84213 27.1051 44.8699 0.185919 0.536627 0.919222 0.171643
5478 2 8.79273 26.8981 47.2152 0.183462 0.467423 0.229304 0.254587
5479 2 2.18159 27.3259 44.7941 0.200828 -1.34518 -0.259624 -0.369873
5480 2 10.0978 27.4106 43.8746 0.182687 0.469511 0.153442 0.124761
5481 2 9.0732 29.176 48.2342 0.18674 -0.356888 -0.31205 0.0629435
5482 2 0.631721 33.0257 38.7804 0.200012 0.603376 0.668168 -0.351616
5483 2 11.1103 29.0951 45.4795 0.200072 -0.119134 0.0591904 -0.00241799
5484 2 11.0351 36.9176 37.9166 0.196773 0.544448 0.978208 0.0545114
5485 2 6.83249 26.7446 49.5284 0.189253 -0.66937 0.106261 -0.0864116
5486 2 9.12453 35.3344 44.5875 0.187153 -0.0561428 0.430624 -0.495801
5487 2 1.77483 37.3318 44.134 0.184494 -1.27274 1.35246 -0.0937456
5488 2 7.36908 36.7788 42.4111 0.176031 0.755296 -0.671672 -0.270504
5489 2 5.59411 33.1767 44.7809 0.217726 0.0249254 -0.580912 -0.177011
5490 2 8.13402 37.0198 48.1899 0.194545 -0.236039 -1.51463 0.535463
5491 2 5.48053 24.9584 43.651 0.188862 0.0295372 0.242066 -0.0155234
5492 2 0.977327 36.8842 37.7625 0.182246 0.855724 -0.129585 0.443599
5493 2 4.55497 35.8409 43.1162 0.181929 -0.0468827 0.217059 1.21594
5494 2 10.9388 31.1754 38.9838 0.203226 0.0675376 0.604138 -0.347696
5495 2 2.51389 35.4324 47.0853 0.217781 0.838192 -0.54122 -1.06098
5496 2 4.73149 27.2826 39.7447 0.18377 0.917591 -0.542493 1.375
5497 2 8.84103 33.1632 48.8965 0.185044 0.604299 0.164529 -0.329517
5498 2 10.9037 30.9487 46.904 0.178203 -0.170866 -0.409833 -1.20344
5499 2 2.16142 30.8865 48.5248 0.185255 0.0352301 -0.063041 -0.876682
5500 2 0.484207 33.9491 46.4675 0.171467 -0.184342 -0.155812 0.0513319
5501 2 8.68446 37.2401 45.4823 0.197333 1.07399 0.047969 -0.916569
5502 2 1.7523 26.3181 41.4034 0.191605 -0.401092 -0.590883 -0.495687
5503 2 10.0377 29.3502 41.4486 0.190209 -0.254085 -1.20031 -0.349005
5504 2 1.4415 33.3937 44.655 0.197903 -0.423558 0.695342 -0.273241
5505 2 12.2426 28.2161 39.0209 0.20383 -0.629518 -0.937764 0.717511
5506 2 6.27105 31.111 38.8962 0.194517 -0.258115 -0.216352 -0.292951
5507 2 11.5045 32.7469 40.4733 0.211453 -0.798633 0.560635 0.818959
5508 2 2.95307 28.3294 41.9518 0.181177 -0.537051 -0.10818 0.0102287
5509 2 5.04204 36.0558 48.6255 0.203442 -0.0824565 -0.146096 -0.34377
5510 2 7.60418 37.2878 40.3661 0.187694 0.782666 -0.710788 2.48752
5511 2 5.94892 34.5631 46.7111 0.200876 -0.637948 -0.373401 0.668026
5512 2 4.93735 36.3596 38.2936 0.192186 -0.187593 -0.0372403 -0.06828
5513 2 8.93492 36.5751 39.0205 0.183343 -1.04311 1.72504 1.87065
5514 2 12.0659 26.2561 46.8682 0.169478 -0.427857 0.227617 1.19606
5515 2 4.15981 32.1705 49.1399 0.186237 -0.781489 0.0382438 0.538909
5516 2 2.66694 27.9665 38.3883 0.19654 0.6234 0.431315 0.0476183
5517 2 11.9077 35.4911 42.9035 0.211573 0.138152 -0.606052 2.01534
5518 2 4.25948 32.1203 39.4979 0.187777 0.206748 -0.142812 -0.0832244
5519 2 10.8041 34.1122 47.5079 0.188639 -0.548906 -0.306138 0.0208792
5520 2 10.679 31.0985 42.775 0.198723 0.520372 -0.78658 -0.126236
5521 2 1.49501 29.803 37.8631 0.18557 -0.437895 -0.382194 0.575246
5522 2 1.93438 30.2433 41.9415 0.200804 0.877834 -0.413199 -0.190826
5523 2 10.0162 34.5313 39.8083 0.193293 -0.0801703 -0.8656 1.44943
5524 2 8.41129 31.302 48.3719 0.183539 0.185327 1.3576 1.24123
5525 2 8.57745 29.1832 39.3588 0.169258 -0.484946 0.825627 0.269855
5526 2 3.12154 29.1695 45.7473 0.18586 -0.395803 -0.120505 0.168427
5527 2 5.12165 30.4284 43.9346 0.200809 0.107389 0.112671 0.617112
5528 2 3.97989 34.4813 41.2289 0.202417 -0.13761 -0.30215 -0.365087
5529 2 6.18406 28.4984 41.2374 0.177606 0.0274486 1.00087 0.1756
5530 2 11.3996 27.8097 48.3291 0.187184 0.0580308 -0.365793 0.154948
5531 2 5.96165 32.9173 41.5912 0.20657 0.916768 0.63533 0.0812745
5532 2 6.82124 30.7884 47.1701 0.199802 1.48871 -0.338913 0.200338
5533 2 1.8205 31.4864 43.5026 0.189036 -0.871018 -0.484005 -1.36527
5534 2 10.1764 33.2532 44.2089 0.185148 -0.075838 -0.226015 -0.0553234
5535 2 8.73932 29.568 44.4589 0.197283 -0.907321 -0.539577 -0.662547
5536 2 4.84697 25.9823 48.7139 0.195945 0.0446006 -0.70438 -0.10261
5537 2 2.38387 36.609 41.0298 0.190114 -1.11681 -0.0465139 0.0844356
5538 2 2.01298 30.9832 46.253 0.193026 0.559967 -0.33734 0.690774
5539 2 6.05123 33.3584 37.9423 0.186595 1.59221 1.1299 1.05485
5540 2 12.1244 31.9422 48.1431 0.181704 0.0769861 0.161197 0.12607
5541 2 6.81395 28.3634 44.6551 0.175327 -1.22522 -0.378156 1.35894
5542 2 7.52419 26.8817 46.4245 0.170356 0.361717 -0.859691 0.230335
5543 2 1.26013 27.1548 43.5049 0.195652 -0.0856628 0.0705146 -0.873182
5544 2 9.3179 26.0755 43.6916 0.176887 0.359285 1.93826 -1.07616
5545 2 8.83781 27.7884 49.0122 0.191729 -0.136052 0.068458 0.195669
5546 2 1.39629 34.3232 38.1835 0.204519 -0.106727 0.979409 0.00508472
5547 2 12.139 28.1229 44.8372 0.196989 2.42671 -0.920914 0.0592306
5548 2 11.3753 25.8237 38.6733 0.189669 1.0604 -0.701587 -1.19632
5549 2 7.44018 26.6975 38.5766 0.193644 0.500526 -0.23373 -2.11239
5550 2 9.15931 34.3113 45.611 0.178534 0.434442 -0.70176 2.19829
5551 2 2.97522 36.5574 44.216 0.188776 0.365083 -1.0016 0.141488
5552 2 7.50476 35.3261 41.7929 0.183312 0.516352 1.08608 0.416988
5553 2 6.70092 34.2816 44.793 0.204822 1.81606 -0.128042 -0.662954
5554 2 7.29675 35.6523 48.2679 0.190286 -0.499801 -0.0780154 -0.300514
5555 2 5.45386 25.9681 42.452 0.197694 -0.00694628 0.189966 -0.118941
5556 2 1.90502 36.4663 38.967 0.174737 -0.265251 0.650328 -1.32413
5557 2 5.05597 35.4381 44.5941 0.211923 -0.272861 -0.0957176 -0.394966
5558 2 9.73596 30.4178 38.4339 0.184692 -0.880549 -0.454093 -0.377501
5559 2 1.7309 36.7327 47.1639 0.205589 -0.283627 0.0160483 -0.0744523
5560 2 6.02609 26.4593 40.0077 0.172044 0.620387 -0.689887 -0.183457
5561 2 9.34778 32.0934 37.5611 0.197872 -0.626093 0.650184 -0.379344
5562 2 10.7142 31.4464 45.2971 0.182729 -0.347988 -1.06459 1.32819
5563 2 1.85915 31.9108 49.6982 0.189531 0.465975 -0.306958 -0.0933404
5564 2 1.08282 34.0431 47.918 0.185737 -2.21346 -0.680205 -1.07284
5565 2 10.1843 37.2771 45.4899 0.190314 0.962144 0.242323 0.094448
5566 2 0.918038 27.4561 40.6222 0.176606 0.84463 -1.06131 2.34857
5567 2 9.33443 27.9045 41.5107 0.200566 0.554832 0.508008 -0.299333
5568 2 1.10965 34.971 44.5407 0.21368 0.860617 1.05695 -0.357679
5569 1 24.2761 27.4503 39.5142 -0.421723 0.0160858 0.71682 -0.00729025
5570 1 17.8049 30.8888 39.144 -0.355851 0.782451 0.153177 -0.341461
5571 1 24.6156 32.2307 40.0428 -0.378592 -0.468933 0.335687 -1.90933
5572 1 15.8263 29.1706 42.1743 -0.40115 1.29545 -0.201605 -0.647871
5573 1 16.9855 36.6205 49.2358 -0.346685 1.47102 0.607961 0.21995
5574 1 19.7828 25.0684 39.5138 -0.380965 -0.420174 1.13921 -1.64394
5575 1 18.1714 34.7867 47.6421 -0.432333 0.284153 0.214319 0.43116
5576 1 17.7625 36.08 39.1621 -0.347039 0.284166 -0.974727 0.346808
5577 1 21.8364 36.0324 38.4316 -0.3814 0.424266 -1.14795 -0.518347
5578 1 24.5084 25.5273 46.2575 -0.433096 1.13966 0.635162 -1.18633
5579 1 17.4535 32.6072 49.0746 -0.33375 1.04515 -0.100311 -0.607135
5580 1 16.084 28.0791 38.4143 -0.328041 0.921521 1.5679 0.0102202
5581 1 24.3271 35.7902 42.0345 -0.394812 -0.0667026 0.414026 -2.42586
5582 1 16.3243 32.94 39.846 -0.464274 -0.113098 0.486463 0.377596
5583 1 22.2662 34.0516 47.5134 -0.366373 0.501448 1.68263 0.494933
5584 1 23.4462 30.2007 42.5041 -0.322638 -0.0195586 0.317823 1.79397
5585 1 13.413 29.0072 38.1716 -0.355106 0.837326 0.92456 -0.630042
5586 1 13.685 30.8828 42.0942 -0.377324 -0.434105 0.764365 -0.324306
5587 1 22.5472 33.9799 40.6518 -0.347169 0.545012 0.89535 -2.16322
5588 1 20.8339 30.6097 47.7236 -0.378134 0.667924 -0.862403 -1.88431
5589 1 20.5051 29.6107 38.6361 -0.368359 0.625724 -2.95302 -0.879918
5590 1 15.6728 28.2298 45.5949 -0.402483 2.13479 -0.0620482 -0.0854463
5591 1 17.4658 31.0954 44.623 -0.413086 -0.43791 0.450425 -0.234257
5592 1 16.3873 35.4421 41.2881 -0.402579 0.380723 0.0830906 -0.0329257
5593 1 18.6886 29.4485 41.5476 -0.376944 -0.20569 -0.477026 -0.0356748
5594 1 24.6254 27.2374 48.4422 -0.379774 -0.885934 -0.985375 1.27909
5595 1 19.202 33.457 41.4061 -0.404269 -0.98214 -0.583278 0.134106
5596 1 18.3132 30.7323 47.1221 -0.34625 -2.52049 0.333418 -0.182957
5597 1 14.6253 31.7998 44.3247 -0.404352 0.0692179 0.603008 1.57458
5598 1 23.3331 32.5769 44.1152 -0.348856 0.658057 0.615477 -0.00568553
5599 1 20.4744 29.1683 43.9034 -0.319934 0.388861 0.0813546 -0.0789864
5600 1 17.7353 26.813 48.8948 -0.423208 -1.44028 -0.206526 0.384883
5601 1 13.974 37.0498 40.7828 -0.409538 0.707076 -1.01806 0.453443
5602 1 14.4847 30.3802 47.0458 -0.308548 -0.461745 0.97915 -1.95873
5603 1 19.1072 33.937 38.5422 -0.336845 -2.07348 -0.949073 -0.295136
5604 1 24.1906 31.0665 48.3447 -0.370909 0.116874 0.024337 -0.570148
5605 1 18.5531 27.9575 45.2949 -0.391249 0.966895 -0.531313 -1.86241
5606 1 20.6667 26.2706 46.7678 -0.396652 -0.811122 0.459773 -0.378199
5607 1 13.7589 26.9093 44.4224 -0.37949 0.874049 0.00422123 1.39108
5608 1 21.9243 26.9993 43.251 -0.386042 -0.6454 -1.93882 1.01972
5609 1 21.7749 28.2299 48.3026 -0.415757 0.374618 -0.419472 0.302643
5610 1 13.7567 33.38 38.1445 -0.388508 0.245337 -0.686116 -0.206866
5611 1 23.6974 28.3711 44.8432 -0.367429 -2.76975 0.722309 -0.788151
5612 1 24.1463 25.2208 37.9318 -0.379619 -1.61664 0.0254801 0.961274
5613 1 20.0793 26.9269 37.6163 -0.389784 0.157764 0.545557 1.02793
5614 1 21.3046 34.4083 44.736 -0.38807 -0.191756 0.634947 -1.47254
5615 1 14.456 36.4262 44.2223 -0.410177 0.824628 -0.531549 0.167905
5616 1 20.4687 36.1581 41.9977 -0.380405 -1.66115 -0.815173 -0.158689
5617 1 18.2662 34.0703 45.0477 -0.318251 -1.05866 0.217726 0.719652
5618 1 20.5555 36.0817 48.5508 -0.340101 1.36724 2.01948 -0.25149
5619 1 18.3854 25.7258 43.2429 -0.433448 0.552265 0.136771 0.190348
5620 1 14.3247 36.549 37.9709 -0.446461 -0.0916649 -0.637564 0.304044
5621 1 17.104 36.167 44.0627 -0.355524 -0.0506006 -0.58299 -0.303712
5622 1 22.7671 31.1458 38.2245 -0.329094 1.21291 -0.63636 1.14821
5623 1 14.4569 35.9592 47.6658 -0.380943 -0.596964 1.38612 0.147723
5624 1 17.8042 26.9516 40.4728 -0.367501 -1.61725 1.42857 -1.00711
5625 1 21.005 32.4819 49.501 -0.420497 -0.122212 -0.382302 0.683448
5626 1 22.9556 30.7001 45.9913 -0.400042 0.739262 1.43527 0.488573
5627 1 14.8144 31.1157 49.4376 -0.422046 -0.426227 0.970223 1.13622
5628 1 12.7443 33.6607 47.3846 -0.376123 1.64932 0.429331 1.89913
5629 1 21.9138 37.0205 44.9054 -0.330166 -1.6168 0.140064 0.611092
5630 1 13.8547 27.2082 41.5059 -0.409463 -0.818863 1.9295 -1.54798
5631 1 22.1344 28.5799 40.8941 -0.379982 -0.510517 -0.405826 -0.361573
5632 1 13.1941 34.105 44.7231 -0.38976 -0.510134 -1.3642 0.388334
5633 2 23.5283 27.7637 40.0748 0.190124 0.498777 0.15872 -0.424942
5634 2 17.9562 30.4016 39.9534 0.191118 0.106997 -0.351314 0.551456
5635 2 12.6843 31.6867 40.6202 0.203006 0.755005 -0.44695 1.19796
5636 2 16.7377 29.0811 41.8007 0.177858 -0.926778 0.527302 0.663182
5637 2 16.0812 36.4418 49.0884 0.196134 -2.11122 -0.298883 -0.148978
5638 2 18.9725 36.9504 39.3206 0.174085 0.197244 0.0713455 0.101056
5639 2 17.8219 34.0332 48.1953 0.193031 0.310387 0.150915 -0.958391
5640 2 18.1783 35.1872 38.9559 0.182186 -0.0560799 0.631075 0.275886
5641 2 21.146 35.9572 37.7487 0.176449 0.520951 -0.0360582 -0.598153
5642 2 12.7261 25.9304 45.6119 0.17226 -1.22121 -1.0639 0.454148
5643 2 17.9019 31.9706 48.4773 0.180603 0.137583 0.284749 0.120612
5644 2 16.2884 29.0607 38.3851 0.193653 -0.409793 -1.69455 0.0452344
5645 2 23.984 35.0642 41.4898 0.190067 -0.107076 0.253595 0.153203
5646 2 15.4494 33.0686 39.4778 0.186579 -0.0482194 -0.0761189 -0.170963
5647 2 21.9773 34.9313 47.898 0.183583 0.10155 -1.16323 -0.612185
5648 2 23.63 29.7337 43.377 0.169731 -0.402556 0.334587 -1.31168
5649 2 13.1391 28.6421 49.765 0.177518 -0.25686 -0.47909 -0.0046035
5650 2 12.8664 30.401 42.1981 0.19084 -0.596396 -0.314762 0.137872
5651 2 21.9498 34.3734 41.275 0.19741 -0.483377 0.225729 0.465482
5652 2 21.5221 30.7547 47.0097 0.185795 -0.813562 0.0146496 0.675965
5653 2 20.3772 28.7178 38.1242 0.15622 -0.371637 2.12832 0.552747
5654 2 16.6738 28.0974 45.5543 0.191296 -1.50193 0.211802 -0.0126367
5655 2 17.7167 30.8001 45.5308 0.188168 0.235863 -0.136824 -0.514889
5656 2 16.8809 35.7938 40.4789 0.187235 -0.323965 -0.601367 0.639733
5657 2 19.3775 29.4606 42.2261 0.197249 -0.0527276 0.190008 -0.0506675
5658 2 24.3176 26.4882 49.0842 0.1766 0.69954 1.37274 -1.11373
5659 2 19.2275 33.4304 40.4434 0.178475 0.176051 0.208282 -0.336072
5660 2 18.0611 29.876 47.4624 0.220836 0.0862013 -0.343906 0.114422
5661 2 15.546 31.5562 44.3046 0.189143 0.96089 0.00472036 0.215299
5662 2 24.1686 33.1066 44.1872 0.191499 -0.450506 -0.487987 -0.00104036
5663 2 20.847 28.3454 43.5067 0.181932 0.338675 0.0354047 0.356047
5664 2 17.0773 27.2559 49.4878 0.182519 0.76309 -0.0729525 -0.46265
5665 2 13.1907 36.5731 41.1887 0.192518 1.1068 0.456758 -0.103957
5666 2 13.5458 30.1946 47.0621 0.19876 -0.478548 -0.608088 0.449342
5667 2 19.9753 34.0004 38.1597 0.194862 0.382537 -0.503949 -0.470963
5668 2 23.8063 31.0855 49.2345 0.192689 -0.265763 -0.0837851 0.151681
5669 2 18.2902 27.1098 44.8563 0.182858 0.442336 0.832138 0.248782
5670 2 21.2579 26.8992 47.209 0.184531 0.228185 0.130059 0.140699
5671 2 14.6104 27.3281 44.7838 0.202167 -0.962736 -0.138375 -0.217643
5672 2 22.5396 27.4166 43.875 0.181626 0.341189 0.0420161 -0.0196864
5673 2 21.5239 29.1751 48.2512 0.18504 -0.328248 -0.255033 -0.0248584
5674 2 13.1065 33.0238 38.7744 0.200565 -0.0849962 0.333519 0.217406
5675 2 23.5698 29.091 45.4642 0.202995 -0.18011 0.610728 0.518153
5676 2 23.467 36.9124 37.9119 0.19528 0.995173 1.47681 0.0899939
5677 2 19.2838 26.7212 49.5351 0.188001 -0.622038 0.178051 -0.129887
5678 2 21.5818 35.3418 44.5677 0.185342 -0.25454 -0.241174 -0.221045
5679 2 14.2102 37.3253 44.1338 0.185432 -1.26275 1.48199 -0.110138
5680 2 19.8163 36.7651 42.4164 0.175914 0.645221 -0.407678 -0.136327
5681 2 18.0287 33.1794 44.7756 0.218676 0.11094 -0.46066 -0.145473
5682 2 20.5811 37.0217 48.1975 0.196239 -0.215957 -1.46687 0.506726
5683 2 17.9313 24.9491 43.6589 0.190904 0.0109597 0.349413 -0.123342
5684 2 13.4321 36.8739 37.7508 0.187174 0.360302 0.063497 0.406519
5685 2 16.9817 35.8391 43.1409 0.184459 -0.0795444 -0.0768424 0.340641
5686 2 23.3924 31.169 38.9855 0.20041 -0.162906 0.564946 -0.599689
5687 2 14.9721 35.4253 47.0902 0.21666 0.664787 -0.322931 -0.93147
5688 2 17.1842 27.3031 39.7459 0.183909 0.839326 -0.600913 1.34826
5689 2 21.281 33.1636 48.8964 0.185189 0.68042 0.353319 -0.483205
5690 2 23.3348 30.9483 46.9242 0.17641 -0.235009 -0.491254 -1.64729
5691 2 14.5895 30.8758 48.517 0.181996 0.235612 0.194145 -0.123623
5692 2 12.9308 33.9406 46.48 0.17468 -0.0304311 0.0634131 -0.561776
5693 2 21.1393 37.2417 45.4906 0.197117 0.835572 0.0678081 -0.821559
5694 2 14.1967 26.3272 41.3934 0.191496 -0.161395 -1.06199 -0.444707
5695 2 22.474 29.316 41.4363 0.193355 0.151278 -0.217538 0.271949
5696 2 13.8784 33.3974 44.6577 0.199187 -0.106191 0.422521 -0.320758
5697 2 24.7013 28.2079 39.0152 0.205585 -0.64324 -0.753153 0.674943
5698 2 18.7206 31.1242 38.8941 0.192798 -0.67416 -0.343545 -0.154543
5699 2 23.9322 32.7489 40.4656 0.211926 -0.425792 0.256707 0.596463
5700 2 15.418 28.3259 41.9541 0.181014 -0.595919 -0.175322 -0.0103782
5701 2 17.4904 36.0568 48.6362 0.203499 0.0653784 -0.266889 -0.468996
5702 2 20.0555 37.2677 40.3752 0.183306 0.497683 -0.465498 1.61683
5703 2 18.389 34.5751 46.7024 0.203208 -0.692391 -0.497853 0.841687
5704 2 17.3733 36.3373 38.3057 0.192746 -0.452004 0.308556 -0.545206
5705 2 21.3611 36.5786 39.0315 0.179936 -0.48372 1.04864 1.10787
5706 2 24.5093 26.2526 46.8919 0.168761 -0.360408 -0.0599101 0.867273
5707 2 16.6071 32.1774 49.1374 0.187132 -1.16409 -0.139545 0.58252
5708 2 15.123 27.9938 38.3788 0.197209 -0.158177 0.208711 0.0440863
5709 2 24.3514 35.4808 42.9006 0.209988 0.162542 -0.615382 2.16022
5710 2 16.7109 32.1216 39.498 0.188284 0.12859 -0.103297 -0.0845328
5711 2 23.2515 34.101 47.5145 0.189467 -0.588672 -0.268976 0.0129678
5712 2 23.1109 31.0883 42.7805 0.198766 0.513443 -0.635204 -0.164568
5713 2 13.951 29.792 37.8694 0.187367 -0.404181 -0.22891 0.496508
5714 2 14.3921 30.2582 41.9482 0.20323 0.942856 -0.684829 -0.241166
5715 2 22.452 34.5355 39.8074 0.192297 -0.00806504 -0.951074 1.5091
5716 2 20.8449 31.3211 48.3664 0.182996 0.238474 0.985757 0.872945
5717 2 21.0271 29.1883 39.3432 0.171992 -0.25652 0.577996 0.667364
5718 2 15.5679 29.1794 45.737 0.184883 -0.30356 -0.396176 0.12325
5719 2 17.5669 30.4299 43.9282 0.201816 0.126114 0.0685997 0.658336
5720 2 16.4229 34.4673 41.2318 0.199695 -0.135599 0.636221 -0.371189
5721 2 18.6184 28.527 41.229 0.182443 0.0677369 0.165848 -0.0178432
5722 2 23.8518 27.8148 48.3245 0.186373 -0.0132123 -0.317821 0.13307
5723 2 18.403 32.9172 41.5931 0.207535 0.907777 0.622981 0.0896373
5724 2 19.2496 30.7976 47.1823 0.200813 2.1922 -0.299225 0.206036
5725 2 14.2757 31.4743 43.4982 0.186957 -0.817254 -0.359745 -1.0911
5726 2 22.6324 33.2519 44.2066 0.185205 -0.320711 -0.112239 -0.0190449
5727 2 21.1828 29.5641 44.4504 0.197824 -0.712821 -0.331371 -0.412171
5728 2 17.2832 25.958 48.7223 0.190823 0.637648 0.343563 0.0985204
5729 2 14.8282 36.5925 41.0259 0.187054 -1.39099 0.143171 -0.0054489
5730 2 14.4715 30.9844 46.2567 0.194573 0.525869 -0.313618 0.662006
5731 2 18.4848 33.376 37.9578 0.187218 1.44429 0.844406 0.810337
5732 2 24.5493 31.9397 48.1472 0.183359 0.187131 0.344113 0.0662779
5733 2 19.2717 28.3538 44.6366 0.171613 -1.55421 -0.428708 1.78175
5734 2 19.9722 26.8792 46.4205 0.17113 0.338739 -0.751762 0.262277
5735 2 13.6916 27.1574 43.5134 0.198439 -0.123486 0.181777 -1.36909
5736 2 21.76 26.081 43.6854 0.177679 0.341872 1.83803 -1.03721
5737 2 21.2786 27.7934 49.0235 0.189379 0.144441 0.195076 -0.20162
5738 2 13.8241 34.3325 38.1906 0.203993 -0.123727 0.494865 -0.0343445
5739 2 24.5717 28.1066 44.8217 0.199146 2.96765 -1.09957 0.0531624
5740 2 23.8236 25.8465 38.6623 0.189059 1.07207 -0.870547 -1.26187
5741 2 19.8751 26.7147 38.5649 0.19366 0.455864 -0.386861 -1.55067
5742 2 21.6021 34.3082 45.6184 0.177364 0.366842 -0.566209 1.89599
5743 2 15.4247 36.5559 44.2133 0.188171 0.0574045 -0.989651 0.153433
5744 2 19.9412 35.3283 41.803 0.181827 0.685365 1.12996 0.397748
5745 2 19.1454 34.2916 44.7996 0.205325 1.66736 -0.21997 -0.639643
5746 2 19.7575 35.6664 48.2672 0.193351 -1.32156 -0.537192 -0.570625
5747 2 17.9077 25.9686 42.4515 0.199588 -0.170254 0.185645 -0.287101
5748 2 14.3587 36.4547 38.9417 0.181237 -0.317646 0.62254 -0.46207
5749 2 17.5036 35.4309 44.5998 0.211804 -0.433761 0.161612 -0.614376
5750 2 22.1729 30.4104 38.4344 0.182869 -0.605413 -0.114145 -0.450472
5751 2 14.1679 36.7514 47.1534 0.202546 0.141794 -1.06814 0.53611
5752 2 18.4569 26.4509 40.0003 0.171648 0.656775 -0.7243 -0.18064
5753 2 21.7777 32.0992 37.5403 0.199158 -0.0293067 0.358087 0.0397307
5754 2 23.164 31.4423 45.2953 0.182788 -0.357129 -1.01476 1.35319
5755 2 14.3042 31.9295 49.7118 0.187488 0.714352 -0.770968 -0.28737
5756 2 13.5143 34.0547 47.9309 0.186755 -2.1908 -0.714069 -1.17807
5757 2 22.6296 37.2779 45.4835 0.190739 1.08951 0.251006 0.151683
5758 2 13.3739 27.4405 40.6174 0.175474 0.747036 -0.900204 2.31047
5759 2 21.7864 27.8987 41.4983 0.203666 0.407413 0.262109 -0.0888642
5760 2 13.5497 34.9767 44.5419 0.213963 0.767465 0.730303 -0.290229
5761 1 11.8271 39.8932 39.5159 -0.420105 0.516926 0.603469 -0.426532
5762 1 5.35944 43.3311 39.1425 -0.354339 -0.0114738 0.342311 -0.780216
5763 1 12.1714 44.6752 40.0456 -0.376148 0.370616 -0.517188 -1.4701
5764 1 3.37738 41.6143 42.1776 -0.400886 1.13515 -0.0542683 -0.53246
5765 1 4.5383 49.0648 49.2384 -0.353577 0.417526 0.554277 0.130662
5766 1 7.34102 37.5171 39.5134 -0.368785 -0.291197 1.34826 -1.79055
5767 1 5.72823 47.2314 47.6442 -0.423509 0.264613 0.081223 0.416922
5768 1 5.32212 48.527 39.1657 -0.354682 -0.478839 -0.0167696 -0.353411
5769 1 9.39041 48.4759 38.4342 -0.388422 0.320617 -1.55938 -1.36002
5770 1 12.0604 37.9756 46.2555 -0.434962 1.59683 0.19118 -2.30014
5771 1 5.0082 45.0545 49.0686 -0.331848 1.11491 0.158945 -0.432723
5772 1 3.63744 40.5258 38.4149 -0.330541 -0.194623 1.20324 0.0107065
5773 1 11.8786 48.2354 42.033 -0.394397 0.282348 1.05584 -1.86775
5774 1 3.88325 45.3879 39.8418 -0.465595 0.302336 0.0240488 0.284923
5775 1 9.81968 46.4917 47.513 -0.366313 0.667107 1.65959 0.48039
5776 1 10.9984 42.6451 42.5039 -0.324417 0.30688 -0.315682 1.90181
5777 1 0.969636 41.4525 38.1727 -0.354232 1.24294 1.41352 -0.0953976
5778 1 1.2401 43.323 42.0913 -0.373199 -0.537807 1.03336 -0.269721
5779 1 10.0997 46.4217 40.6519 -0.350816 0.140977 1.25866 -1.97969
5780 1 8.39252 43.0529 47.7244 -0.372656 0.678329 -0.490184 -1.65176
5781 1 8.05883 42.055 38.6373 -0.3674 0.769896 -3.20733 -0.603947
5782 1 3.23156 40.6726 45.5926 -0.401585 2.19028 -0.648339 -0.221617
5783 1 5.02042 43.5451 44.6238 -0.411146 -0.357799 0.180577 -0.206783
5784 1 3.93903 47.8822 41.2842 -0.404635 0.395929 0.265828 -0.031293
5785 1 6.25074 41.8922 41.5446 -0.382495 -0.134644 -0.682838 0.00417526
5786 1 12.1764 39.6818 48.445 -0.38572 -0.780525 -0.801916 1.14082
5787 1 6.75923 45.904 41.4037 -0.405914 -1.0608 -0.726276 -0.538903
5788 1 5.86997 43.1722 47.1236 -0.350227 -1.91231 0.793677 -0.339379
5789 1 2.1856 44.2481 44.3255 -0.405297 -0.299437 0.454242 1.05758
5790 1 10.8923 45.0256 44.1116 -0.35658 0.0750736 0.166572 -0.0635196
5791 1 8.02865 41.6133 43.903 -0.328398 0.128527 0.138095 -0.179721
5792 1 5.29205 39.2529 48.8949 -0.415106 -1.16517 0.771465 0.770551
5793 1 1.5265 49.4891 40.7842 -0.412327 0.523676 -0.607666 0.191725
5794 1 2.03661 42.8255 47.0447 -0.311229 -0.980823 0.876975 -1.96028
5795 1 6.66093 46.3834 38.5454 -0.339749 -1.59654 -0.918041 -0.399877
5796 1 11.7492 43.5144 48.3474 -0.376987 -0.52423 -1.1972 -0.13922
5797 1 6.11389 40.4056 45.2925 -0.383879 0.318696 -1.28014 -1.53596
5798 1 8.22275 38.7108 46.7668 -0.391255 -1.47073 0.818256 -0.610036
5799 1 1.31194 39.3536 44.4272 -0.37978 1.06386 -0.221525 2.35208
5800 1 9.48157 39.4465 43.2514 -0.391867 -0.194033 -1.86658 1.66467
5801 1 9.33189 40.6753 48.3043 -0.420414 0.102384 -0.206747 0.451217
5802 1 1.30808 45.8254 38.1455 -0.39594 -0.396373 -0.981969 0.37089
5803 1 11.2516 40.8196 44.8432 -0.35993 -2.06456 0.624937 -0.75008
5804 1 11.6961 37.66 37.9357 -0.380099 -1.44328 0.0393075 0.861206
5805 1 7.62713 39.3716 37.6154 -0.389176 0.524953 0.532106 1.89423
5806 1 8.86325 46.8518 44.7361 -0.38693 -0.431416 0.0641797 -1.4491
5807 1 2.01115 48.8761 44.2212 -0.409496 0.366143 -0.868418 0.195058
5808 1 8.01977 48.6015 41.9929 -0.384379 -1.20278 -0.755013 -0.213674
5809 1 5.82114 46.5148 45.0396 -0.324085 -1.73516 0.433603 1.07378
5810 1 8.10794 48.5221 48.5572 -0.342027 0.445927 1.22866 -0.51844
5811 1 5.93499 38.1763 43.246 -0.429956 0.28809 -0.102945 0.183158
5812 1 1.88044 48.9968 37.9731 -0.445599 0.0254543 -0.640366 0.279243
5813 1 4.65621 48.6137 44.065 -0.352818 -0.279439 -0.58431 -1.07064
5814 1 10.3172 43.5937 38.2249 -0.325237 1.27723 -0.75135 1.38542
5815 1 2.00757 48.4083 47.6668 -0.380257 -0.424982 0.998526 0.313853
5816 1 5.36028 39.3925 40.4749 -0.364011 -0.973 1.00979 -1.24549
5817 1 8.56268 44.921 49.5026 -0.415495 -0.129508 -0.0799975 0.42359
5818 1 10.5113 43.143 45.9957 -0.392773 0.700575 1.42853 0.642782
5819 1 2.37006 43.5619 49.4366 -0.415039 -0.251632 0.867674 1.46802
5820 1 0.301212 46.1041 47.3818 -0.376544 1.84777 0.63672 1.6286
5821 1 9.469 49.4624 44.906 -0.331513 -1.5227 0.298462 1.17997
5822 1 1.40756 39.6525 41.5047 -0.41289 -0.870991 1.98537 -1.56101
5823 1 9.69318 41.0262 40.8975 -0.385527 -0.545315 -0.446556 -0.392992
5824 1 0.746806 46.5546 44.7241 -0.390633 -0.301852 -1.25583 0.318415
5825 2 11.093 40.197 40.0757 0.192221 0.0408448 0.348964 -0.0965784
5826 2 5.50175 42.8498 39.94 0.194578 0.173836 -0.75297 1.22913
5827 2 0.25053 44.1414 40.6145 0.203929 0.762775 -0.480699 1.24576
5828 2 4.27854 41.5146 41.8003 0.178931 -0.638991 0.537994 0.569403
5829 2 3.61619 48.889 49.0836 0.194219 -1.08109 -0.134907 -0.024814
5830 2 6.5471 49.3942 39.3208 0.176164 -0.166721 -0.126134 0.0143451
5831 2 5.37011 46.4631 48.1695 0.191995 0.29983 0.259933 -0.775683
5832 2 5.72227 47.6494 38.9709 0.183106 0.190283 -0.0145775 0.0946361
5833 2 8.69877 48.4058 37.7298 0.17507 0.922421 0.0705737 -0.0868371
5834 2 0.275635 38.3813 45.597 0.17159 -1.39518 -1.12289 0.79051
5835 2 5.45906 44.4181 48.487 0.18174 0.401495 0.0813807 -0.125989
5836 2 3.84516 41.5046 38.3954 0.193451 -0.519301 -1.60972 0.00792773
5837 2 11.5589 47.5243 41.4859 0.193881 -0.426632 -0.411639 -0.310894
5838 2 3.00601 45.5017 39.4877 0.18709 -0.303046 -0.0242717 -0.271107
5839 2 9.51053 47.3682 47.8862 0.183162 0.131784 -1.09706 -0.553962
5840 2 11.1765 42.1663 43.384 0.169681 -0.454447 0.538285 -1.59624
5841 2 0.668056 41.086 49.7748 0.176072 -0.189735 -0.409863 -0.0816043
5842 2 0.429324 42.8388 42.2226 0.19115 -0.701655 -0.341284 0.114915
5843 2 9.49899 46.8336 41.2795 0.194394 -0.0500851 -0.0274107 -0.00309841
5844 2 9.0712 43.2218 47.0066 0.184979 -0.771455 -0.0921468 0.693415
5845 2 7.91939 41.1542 38.1377 0.155088 -0.356059 2.19144 0.503593
5846 2 4.23085 40.5535 45.5312 0.19126 -1.42104 0.126122 0.0188059
5847 2 5.27489 43.2368 45.5297 0.185683 0.172656 -0.0176675 -0.604037
5848 2 4.43468 48.2387 40.4743 0.186944 -0.344229 -0.65266 0.698945
5849 2 6.94195 41.9021 42.2258 0.195944 -0.169969 0.166213 -0.167897
5850 2 11.88 38.9399 49.0876 0.177925 0.583864 1.22203 -1.02872
5851 2 6.78174 45.8759 40.4244 0.175084 0.115559 0.230837 0.413167
5852 2 5.61663 42.3243 47.46 0.221283 -0.00262516 -0.756125 0.283841
5853 2 3.10198 43.9948 44.3095 0.188887 1.05989 -0.0166758 0.207916
5854 2 11.7166 45.5429 44.1863 0.193763 0.00799989 -0.0861111 0.0458703
5855 2 8.39313 40.7838 43.5232 0.182313 0.424231 -0.0885359 0.261336
5856 2 4.63251 39.689 49.5035 0.182226 0.939468 -0.107061 -0.613016
5857 2 0.745291 49.0279 41.1901 0.195525 0.918048 0.275066 0.010645
5858 2 1.08597 42.6382 47.062 0.197327 0.113054 -0.452093 0.41891
5859 2 7.54151 46.4482 38.1759 0.193299 0.0609703 -0.515289 -0.325585
5860 2 11.3436 43.5214 49.2351 0.193939 -0.0922645 -0.00137279 -0.0990352
5861 2 5.85899 39.5351 44.8632 0.183409 0.557148 1.31194 0.405975
5862 2 8.79471 39.339 47.2288 0.183138 0.350456 0.216588 0.159993
5863 2 2.17155 39.7632 44.7948 0.203539 -1.11639 -0.147103 -0.293557
5864 2 10.1049 39.8809 43.8934 0.178639 -0.282797 -0.497463 -0.596068
5865 2 9.06507 41.6281 48.2418 0.183764 -0.226357 -0.673425 0.0235794
5866 2 0.633915 45.463 38.7864 0.19885 0.616789 0.750047 -0.390989
5867 2 11.113 41.5314 45.4773 0.203767 -0.124833 0.478798 0.396199
5868 2 11.0434 49.3673 37.9174 0.197262 0.407371 0.877912 0.0749555
5869 2 6.81811 39.1793 49.5219 0.186633 0.00176052 0.29903 0.397553
5870 2 9.126 47.7759 44.5864 0.186884 -0.0413826 0.405181 -0.465976
5871 2 1.76616 49.771 44.1378 0.186966 -1.34904 1.75156 -0.134301
5872 2 7.3664 49.1975 42.407 0.178483 0.420789 -0.188598 0.0154113
5873 2 5.59743 45.6329 44.7629 0.219773 -0.0150483 -0.938443 -0.28643
5874 2 8.12941 49.4483 48.1959 0.195183 -0.131308 -1.05888 0.426485
5875 2 5.47251 37.391 43.6543 0.18824 0.190005 0.517059 -0.120329
5876 2 0.992005 49.3229 37.7452 0.18815 0.310126 0.0706939 0.433369
5877 2 4.53356 48.2757 43.1276 0.182887 0.00802107 0.168632 0.952474
5878 2 10.9426 43.6132 38.9921 0.20058 -0.223428 0.649329 -0.754616
5879 2 2.52434 47.8653 47.0972 0.218179 0.576705 -0.192763 -0.869901
5880 2 4.7625 39.7469 39.7391 0.183303 0.650303 -0.54108 1.23974
5881 2 8.83255 45.6098 48.8933 0.184399 0.58997 0.144265 -0.291385
5882 2 10.8935 43.4133 46.9209 0.175032 -0.266057 -0.614841 -1.58002
5883 2 2.15536 43.3234 48.522 0.184183 0.106556 0.103105 -0.474457
5884 2 0.492437 46.3932 46.4732 0.172773 -0.138699 -0.0505657 -0.288783
5885 2 8.68258 49.667 45.5015 0.19621 1.256 0.0622692 -1.07641
5886 2 1.75352 38.7712 41.4024 0.192116 -0.213654 -0.994917 -0.505457
5887 2 10.0487 41.767 41.4259 0.194677 0.0567505 -0.316965 0.319612
5888 2 1.42491 45.8338 44.6569 0.198603 -0.194734 0.586021 -0.306504
5889 2 12.246 40.6538 39.0114 0.206136 -0.661858 -0.844348 0.77243
5890 2 6.26274 43.5529 38.8981 0.196519 0.0527999 -0.123875 -0.39552
5891 2 11.5032 45.198 40.4698 0.211382 -0.726724 0.509072 0.771681
5892 2 2.95781 40.7834 41.9428 0.181281 -0.706324 -0.363288 -0.0330039
5893 2 5.04919 48.5223 48.6299 0.203485 0.0587961 -0.37707 -0.516913
5894 2 7.60966 49.7151 40.3636 0.186179 0.74912 -0.655279 2.37853
5895 2 5.94811 47.0125 46.7116 0.20069 -0.638117 -0.411676 0.647285
5896 2 4.92841 48.7984 38.2836 0.191103 -0.0268878 -0.0245698 0.293162
5897 2 8.92215 49.0037 39.0405 0.181259 -0.783748 1.32266 1.41703
5898 2 12.0538 38.6906 46.8741 0.172078 -0.329548 0.621672 1.42625
5899 2 4.17724 44.607 49.1326 0.188027 -1.4854 -0.221804 0.656483
5900 2 2.65032 40.4172 38.3888 0.195545 1.09318 0.499099 0.0688613
5901 2 11.8892 47.9267 42.9012 0.211753 0.121248 -0.587194 2.05464
5902 2 4.27796 44.5658 39.4816 0.186644 -0.0447951 0.293952 0.116178
5903 2 10.8093 46.5585 47.5246 0.188891 -0.793713 -0.308914 -0.0121445
5904 2 10.689 43.5317 42.7695 0.199828 0.287607 -0.188799 0.0277808
5905 2 1.51519 42.2414 37.8592 0.187647 -0.573162 -0.467219 0.595241
5906 2 1.94336 42.7046 41.9375 0.203975 1.15977 -0.853852 -0.272806
5907 2 10.0116 46.9739 39.7944 0.190532 -0.0281016 -1.0637 1.78016
5908 2 8.41363 43.7613 48.3846 0.18144 0.176077 0.688445 0.626643
5909 2 8.58316 41.6233 39.3488 0.169769 -0.414283 0.767138 0.442117
5910 2 3.1254 41.6078 45.7425 0.186897 -0.442718 0.270203 0.229478
5911 2 5.11661 42.8715 43.9315 0.200027 0.105558 0.212006 0.709607
5912 2 3.96994 46.91 41.2294 0.200983 -0.0987637 0.512968 -0.40108
5913 2 6.16813 40.9647 41.2297 0.180733 0.110091 0.394502 0.0744342
5914 2 11.4 40.2536 48.3179 0.186776 -0.0129381 -0.32836 0.168469
5915 2 5.96891 45.3467 41.5979 0.206693 1.04512 0.749723 0.0111436
5916 2 6.81688 43.2353 47.1648 0.200725 1.68302 -0.351031 0.229723
5917 2 1.83304 43.9308 43.4831 0.185301 -0.580645 -0.190679 -0.604033
5918 2 10.1768 45.6848 44.2019 0.187079 -0.211966 -0.0383166 -0.017736
5919 2 8.73291 42.0164 44.4371 0.198698 -0.48759 -0.217121 -0.254155
5920 2 4.84671 38.4186 48.7256 0.194347 0.213908 -0.565466 -0.12806
5921 2 2.37226 49.0433 41.0286 0.189373 -1.00999 -0.0947466 0.118384
5922 2 2.0277 43.4331 46.2566 0.193392 0.480936 -0.376034 0.708384
5923 2 6.05522 45.8186 37.9536 0.186572 1.33134 0.81297 0.782142
5924 2 12.1209 44.3559 48.1545 0.187761 0.639796 1.49749 -0.0867074
5925 2 6.81054 40.7953 44.6519 0.175286 -1.08294 -0.211458 1.30287
5926 2 7.50438 39.3292 46.4328 0.167932 0.88413 -1.17858 0.451378
5927 2 1.24672 39.5972 43.5335 0.200478 -0.165918 0.441125 -2.26663
5928 2 9.31016 38.5076 43.6745 0.175676 0.532101 2.30739 -1.06634
5929 2 8.83098 40.2235 49.023 0.18859 0.288633 0.405827 -0.389123
5930 2 1.3984 46.7786 38.1869 0.202793 -0.18561 0.358253 0.0178817
5931 2 12.137 40.5491 44.8277 0.197559 2.19492 -0.857185 0.097876
5932 2 11.3833 38.2814 38.6697 0.189905 0.998632 -0.821372 -1.20786
5933 2 7.43893 39.1439 38.5832 0.194589 0.488537 -0.257988 -2.25668
5934 2 9.14315 46.7578 45.6214 0.178378 0.425383 -0.675855 2.08809
5935 2 2.96853 49.0011 44.2158 0.189689 0.590281 -0.928188 0.135409
5936 2 7.51416 47.7672 41.8109 0.184424 0.447387 0.845202 0.304555
5937 2 6.69159 46.7399 44.818 0.206942 2.43655 0.0139143 -0.84911
5938 2 7.29285 48.1067 48.2609 0.190417 -0.504567 -0.182912 -0.246714
5939 2 5.44762 38.4075 42.4546 0.198201 -0.0735318 0.241274 -0.236096
5940 2 1.91824 48.9086 38.9446 0.182134 -0.361227 0.613986 -0.476122
5941 2 5.03619 47.8809 44.6055 0.212314 -0.26606 -0.0181608 -0.48692
5942 2 9.73027 42.8553 38.4496 0.182283 -0.628205 -0.0870745 -0.524841
5943 2 1.72199 49.1975 47.164 0.204759 0.0677364 -0.811794 0.302216
5944 2 6.03395 38.8922 40.0043 0.168943 0.178465 -0.365328 0.172686
5945 2 9.33073 44.5313 37.5526 0.201386 -0.297678 0.540911 -0.148722
5946 2 10.7077 43.8824 45.3092 0.182266 -0.280338 -0.905271 1.12579
5947 2 1.85927 44.3697 49.7115 0.188925 0.631005 -0.612863 -0.269211
5948 2 1.07371 46.5099 47.9239 0.184723 -2.30076 -0.81028 -1.17914
5949 2 10.1942 49.7264 45.4887 0.188541 0.584056 0.115439 -0.165319
5950 2 0.915326 39.8894 40.6195 0.175607 0.838497 -1.00801 2.36932
5951 2 9.32933 40.3485 41.5008 0.204013 0.507211 0.40759 -0.102794
5952 2 1.1101 47.4269 44.5264 0.213348 0.664618 0.447524 -0.228645
5953 1 24.2733 39.8946 39.514 -0.422064 0.114613 0.761071 -0.0884487
5954 1 17.8016 43.3371 39.1469 -0.354203 0.568935 0.389898 -0.860333
5955 1 24.6133 44.6752 40.0452 -0.378618 -0.324156 0.170005 -1.84759
5956 1 15.8269 41.6159 42.1748 -0.402103 0.691573 -0.633384 -0.637902
5957 1 16.9866 49.0622 49.2372 -0.351273 1.31095 0.605704 0.206192
5958 1 19.7869 37.5133 39.512 -0.375013 -0.425155 0.770583 -0.983788
5959 1 18.1755 47.2327 47.6425 -0.431558 0.25915 -0.253878 0.0533955
5960 1 17.765 48.5231 39.1642 -0.356828 -0.136912 -0.493736 -0.276724
5961 1 21.8341 48.4744 38.4342 -0.386473 0.976904 -1.795 -1.27705
5962 1 24.5071 37.9752 46.26 -0.436499 1.61929 0.487941 -2.12774
5963 1 17.4562 45.0553 49.0717 -0.325278 0.962763 -0.114273 -0.502752
5964 1 16.0867 40.5235 38.4154 -0.326595 0.327842 1.44373 -0.00827772
5965 1 24.3243 48.2334 42.0345 -0.394564 0.25963 0.905523 -1.76038
5966 1 16.3249 45.3862 39.8447 -0.46402 -0.471823 0.136287 -0.0192871
5967 1 22.262 46.4947 47.5175 -0.364284 0.443068 1.66234 0.484458
5968 1 23.4459 42.6452 42.505 -0.320517 0.0150838 0.527269 2.19783
5969 1 13.4137 41.4534 38.1722 -0.355753 0.931951 1.01658 -0.890515
5970 1 13.684 43.3243 42.0961 -0.370826 -0.67956 1.44307 -0.258248
5971 1 22.5419 46.4285 40.653 -0.35446 1.41771 0.342674 -2.92791
5972 1 20.833 43.0539 47.7274 -0.368965 0.748917 -0.953386 -2.08747
5973 1 20.5081 42.0557 38.6361 -0.36677 0.847153 -2.98524 -0.317686
5974 1 15.6753 40.6776 45.5928 -0.398721 2.25711 -0.0578942 -0.125946
5975 1 17.4656 43.5419 44.6235 -0.408329 -0.367831 -0.00152904 -0.686611
5976 1 16.3809 47.8856 41.288 -0.397549 0.47736 -0.159566 -0.0366928
5977 1 18.6941 41.8944 41.5448 -0.379777 -0.323734 -0.379866 -0.110665
5978 1 24.6271 39.6856 48.4457 -0.377517 -1.27134 -0.382028 1.00285
5979 1 19.1999 45.9029 41.4054 -0.406764 -0.484851 -0.270141 -0.188488
5980 1 18.3163 43.172 47.1262 -0.352011 -1.89633 0.948113 -0.365546
5981 1 14.6261 44.2434 44.3263 -0.399214 -0.769533 0.668472 1.2719
5982 1 23.3341 45.0201 44.1157 -0.343049 0.749921 0.500246 0.0350071
5983 1 20.4713 41.6144 43.9072 -0.329007 0.750783 -0.0774696 -0.0860639
5984 1 17.7346 39.2529 48.8913 -0.420463 -1.34123 0.208825 0.564206
5985 1 13.9754 49.4981 40.7839 -0.407893 0.885219 -0.882528 0.352052
5986 1 14.4853 42.8216 47.0454 -0.306777 -0.761859 1.27417 -2.40882
5987 1 19.1047 46.3862 38.5427 -0.33801 -1.55346 -1.10462 -0.734068
5988 1 24.1968 43.5153 48.3504 -0.379535 0.261584 0.188957 -0.789055
5989 1 18.5534 40.4082 45.2911 -0.385666 0.177013 -1.25495 -1.4534
5990 1 20.6639 38.7145 46.7626 -0.39402 -0.207179 0.835182 0.136512
5991 1 13.7558 39.3542 44.4244 -0.381932 1.26689 0.106164 1.95645
5992 1 21.925 39.4449 43.256 -0.384447 -0.503475 -1.64727 1.06907
5993 1 21.7736 40.6746 48.3038 -0.414302 0.029333 -0.242892 0.550596
5994 1 13.7527 45.8261 38.1442 -0.391424 -0.326454 -1.53128 0.287495
5995 1 23.6929 40.8131 44.8448 -0.364167 -2.99151 1.16905 -0.407554
5996 1 24.1466 37.6633 37.9339 -0.376659 -1.86551 -0.510247 0.79472
5997 1 20.0748 39.3731 37.6112 -0.393738 0.266732 0.511769 1.35827
5998 1 21.3034 46.8585 44.7336 -0.38667 -0.544916 -0.118658 -1.69896
5999 1 14.4539 48.8723 44.2228 -0.409224 0.0521223 -0.451872 0.150365
6000 1 20.4636 48.6037 41.9971 -0.387167 -1.50523 -1.06478 -0.32393
6001 1 18.2626 46.5144 45.0451 -0.313894 -1.38403 -0.081054 0.786366
6002 1 20.5543 48.5236 48.5573 -0.34188 0.883741 1.51089 -0.321129
6003 1 18.3837 38.1736 43.2472 -0.426189 0.628112 0.213767 0.200851
6004 1 14.3233 48.9955 37.9747 -0.450151 0.0435404 -0.731133 1.10291
6005 1 17.1034 48.6165 44.0631 -0.358657 -0.0372776 -0.970961 -0.910986
6006 1 22.7658 43.5889 38.2256 -0.331895 0.769409 -0.539618 0.535639
6007 1 14.4534 48.4024 47.6651 -0.384247 -1.41909 2.10618 1.34698
6008 1 17.8063 39.3969 40.4735 -0.372034 -1.55426 1.30123 -0.932608
6009 1 21.0049 44.9227 49.5014 -0.413174 -0.776939 -0.107693 0.375148
6010 1 22.9581 43.1467 45.9936 -0.395953 0.461295 1.34099 -0.235609
6011 1 14.8166 43.5603 49.4343 -0.411849 -0.286189 0.860352 1.25249
6012 1 12.7472 46.1032 47.3822 -0.381081 1.9119 0.710446 1.20605
6013 1 21.9146 49.461 44.9032 -0.333578 -1.8537 0.164993 0.723462
6014 1 13.8576 39.6544 41.5007 -0.409098 -0.634898 1.52301 -1.49236
6015 1 22.1347 41.0192 40.8928 -0.381227 -0.568604 -0.486932 0.236691
6016 1 13.1943 46.5519 44.7215 -0.390343 -0.176211 -1.84457 0.408251
6017 2 23.5244 40.2088 40.0715 0.190171 0.456938 0.166973 -0.394863
6018 2 17.9531 42.8559 39.9447 0.193443 0.141275 -0.712057 1.16056
6019 2 12.6915 44.1278 40.6334 0.201781 0.329308 0.00556517 0.725204
6020 2 16.7239 41.5268 41.7944 0.1782 -0.511349 0.503702 0.515267
6021 2 16.0746 48.9045 49.094 0.196281 -1.90241 -0.273866 -0.143247
6022 2 18.9729 49.3968 39.3289 0.17374 0.083153 0.0204455 0.0293568
6023 2 17.8181 46.4655 48.1872 0.190232 0.411927 0.451178 -1.02628
6024 2 18.1913 47.6353 38.9737 0.18294 -0.113863 0.551915 0.0799019
6025 2 21.1586 48.3991 37.7346 0.177328 0.520286 -0.0168413 -0.51789
6026 2 12.7195 38.3788 45.5945 0.17274 -1.36578 -1.07545 0.766315
6027 2 17.916 44.4126 48.4929 0.181517 0.189631 0.240973 0.0414308
6028 2 16.2878 41.5044 38.3792 0.192941 -0.398537 -1.64436 0.0643291
6029 2 23.9822 47.5341 41.4815 0.192095 -0.370724 -0.306215 -0.252197
6030 2 15.4356 45.5089 39.4795 0.183163 0.452374 -0.118304 0.0469237
6031 2 21.9911 47.3748 47.9048 0.183742 -0.0885837 -1.06117 -0.564016
6032 2 23.6377 42.1831 43.392 0.167982 -0.52162 0.495155 -1.66124
6033 2 13.128 41.0968 49.7725 0.177021 -0.317949 -0.560121 -0.275045
6034 2 12.8697 42.8508 42.2091 0.19227 -0.946393 -0.483026 0.198267
6035 2 21.9525 46.8008 41.2681 0.201557 -1.20478 0.735104 1.09713
6036 2 21.5221 43.2169 47.0169 0.185486 -0.835251 -0.0665209 0.681888
6037 2 20.3682 41.1654 38.1436 0.157244 -0.394329 1.9223 0.285682
6038 2 16.6811 40.5516 45.5397 0.191094 -1.64448 0.219328 0.0153072
6039 2 17.7225 43.2438 45.5228 0.185264 0.218967 -0.110727 -0.291136
6040 2 16.8904 48.2311 40.4848 0.186224 -0.359409 -0.533147 0.60494
6041 2 19.3779 41.8846 42.2203 0.196831 0.150226 0.295994 0.169436
6042 2 24.3141 38.9497 49.0773 0.176579 0.659353 1.05609 -0.895908
6043 2 19.2512 45.8765 40.4369 0.179537 0.029689 0.142228 0.00682112
6044 2 18.0638 42.3242 47.455 0.220883 -0.0704438 -0.911591 0.335828
6045 2 15.5292 43.9914 44.2881 0.190822 1.75951 -0.166923 0.271075
6046 2 24.1682 45.5538 44.1916 0.191914 -0.441062 -0.490473 0.000122478
6047 2 20.8474 40.7831 43.5125 0.179041 0.179159 0.272086 0.457418
6048 2 17.0903 39.7044 49.503 0.182513 0.843791 -0.232115 -0.627131
6049 2 13.1845 49.0314 41.1749 0.195356 1.07149 0.326729 0.0130408
6050 2 13.5406 42.6349 47.0454 0.197179 -0.214277 -0.588536 0.494906
6051 2 19.9924 46.4523 38.1722 0.192417 -0.272142 -0.564392 -0.218132
6052 2 23.793 43.5357 49.2286 0.192551 -0.248326 -0.0186586 0.263021
6053 2 18.2895 39.5416 44.8627 0.184024 0.595948 1.26601 0.395599
6054 2 21.2614 39.3475 47.2298 0.181275 -0.210772 -0.336917 -0.239543
6055 2 14.6194 39.7789 44.8017 0.202035 -1.36187 -0.302517 -0.434524
6056 2 22.5405 39.8718 43.884 0.181948 0.167003 -0.132365 -0.181252
6057 2 21.5072 41.6283 48.2378 0.18387 -0.213067 -0.707106 0.0410181
6058 2 13.0911 45.4521 38.7883 0.200892 0.511534 0.778938 -0.32499
6059 2 23.5628 41.5439 45.4715 0.202355 -0.0916422 0.196729 0.152958
6060 2 23.4816 49.363 37.9054 0.197182 0.701186 1.1209 0.0464732
6061 2 19.2736 39.1716 49.522 0.187987 -0.213692 0.247294 0.26618
6062 2 21.5783 47.7738 44.5894 0.187814 -0.0358006 0.696168 -0.611162
6063 2 14.2056 49.7749 44.145 0.185292 -1.2115 1.30851 -0.0745922
6064 2 19.819 49.2197 42.4042 0.177281 0.465257 -0.382925 -0.0586756
6065 2 18.0405 45.6128 44.7837 0.219308 0.0986957 -0.306664 -0.105252
6066 2 20.578 49.4526 48.2023 0.195693 -0.139219 -1.09071 0.419395
6067 2 17.9234 37.4016 43.6444 0.189781 -0.015438 0.0797416 0.150123
6068 2 13.4348 49.3258 37.7402 0.187274 0.403715 0.0148959 0.553368
6069 2 16.9877 48.2813 43.1197 0.181378 0.00043555 0.188124 1.09209
6070 2 23.3798 43.6299 38.9724 0.202027 0.313653 0.537996 0.000368979
6071 2 14.9567 47.8774 47.1161 0.220753 1.69265 -1.43221 -1.96607
6072 2 17.1667 39.7422 39.7615 0.184845 0.968694 -0.626029 1.23864
6073 2 21.2911 45.5987 48.8983 0.186363 0.676293 0.470743 -0.574658
6074 2 23.33 43.3794 46.9067 0.179088 0.0266076 -0.254976 -1.07878
6075 2 14.5958 43.3285 48.5165 0.182841 0.181479 0.0544476 -0.371155
6076 2 12.9331 46.3885 46.4593 0.17066 -0.176363 -0.152983 0.176875
6077 2 21.1252 49.6758 45.4835 0.196782 1.13736 0.0409449 -0.942481
6078 2 14.2127 38.7677 41.3927 0.191709 -0.386059 -0.620725 -0.441069
6079 2 22.501 41.767 41.4246 0.19298 -0.102014 -0.647114 0.0931272
6080 2 13.8816 45.829 44.6575 0.197919 -0.444251 0.782765 -0.284417
6081 2 24.7024 40.6517 39.0136 0.205437 -0.696166 -0.813891 0.743198
6082 2 18.7171 43.5486 38.8916 0.194639 -0.488781 -0.231426 -0.25574
6083 2 23.942 45.197 40.4778 0.211413 -0.482453 0.319364 0.641594
6084 2 15.4087 40.7685 41.9353 0.178676 -0.416288 0.259609 0.136059
6085 2 17.4874 48.5047 48.6283 0.204364 0.00424878 -0.294897 -0.462821
6086 2 20.0522 49.7129 40.3643 0.184647 0.756481 -0.633217 2.29197
6087 2 18.3882 47.0054 46.6914 0.199178 -0.766733 -0.29367 1.27214
6088 2 17.3649 48.8029 38.2898 0.192001 -0.00391978 -0.121267 0.22636
6089 2 21.3683 49.0175 39.016 0.183269 -1.04738 1.67128 1.78707
6090 2 24.5106 38.6957 46.8816 0.170298 -0.338177 0.375825 1.22328
6091 2 16.6128 44.6153 49.1324 0.187634 -1.10894 -0.0865987 0.580679
6092 2 15.1131 40.4357 38.3877 0.195477 0.414476 0.283003 0.0441902
6093 2 24.3203 47.9138 42.9013 0.210932 0.0935805 -0.541968 1.91362
6094 2 16.7113 44.5603 39.4838 0.186608 -0.0147441 0.304455 0.120881
6095 2 23.2414 46.5555 47.513 0.189124 -0.338508 -0.378632 -0.0224811
6096 2 23.121 43.5493 42.7758 0.19772 0.603893 -1.01934 -0.240123
6097 2 13.9629 42.2383 37.8567 0.186573 -0.600887 -0.456137 0.545743
6098 2 14.3728 42.7039 41.9391 0.204898 1.51682 -1.16277 -0.368728
6099 2 22.4778 46.9808 39.8031 0.196223 -0.182602 -0.917748 1.63176
6100 2 20.853 43.7517 48.3791 0.183581 0.196218 1.11692 1.0363
6101 2 21.0236 41.6194 39.3553 0.170039 -0.443461 0.845264 0.361069
6102 2 15.5644 41.6269 45.7402 0.185153 -0.310918 -0.431362 0.126775
6103 2 17.5578 42.8446 43.9445 0.197425 0.0695189 0.494123 0.870237
6104 2 16.4265 46.9061 41.2301 0.198948 -0.181571 0.83369 -0.336365
6105 2 18.6131 40.975 41.2379 0.182074 -0.00338966 -0.0198242 -0.158913
6106 2 23.8385 40.2616 48.3239 0.184546 0.414578 -0.564888 0.165375
6107 2 18.4105 45.3694 41.5975 0.210373 0.550258 0.372717 0.0538388
6108 2 19.2621 43.2327 47.1702 0.200834 1.72864 -0.335509 0.212617
6109 2 14.2761 43.9303 43.4883 0.186809 -0.809588 -0.256717 -0.84414
6110 2 22.633 45.6873 44.2215 0.185979 -0.422938 0.00630573 -0.051763
6111 2 21.1908 42.0025 44.4528 0.19482 -0.878543 -0.365558 -0.521809
6112 2 17.2742 38.4137 48.7023 0.193654 0.491488 0.128743 0.110339
6113 2 14.8346 49.0506 41.0372 0.189597 -1.5188 0.108463 -0.0159553
6114 2 14.4653 43.4383 46.2483 0.191897 0.588705 -0.618558 1.05089
6115 2 18.4887 45.8116 37.9444 0.185589 1.59845 1.05708 1.01073
6116 2 24.562 44.3893 48.1393 0.183414 0.0356813 0.095352 0.193984
6117 2 19.2457 40.7964 44.6514 0.176 -0.977525 -0.188874 1.22453
6118 2 19.9683 39.3291 46.4447 0.171773 0.196934 -0.640802 0.133164
6119 2 13.695 39.5972 43.5201 0.198649 -0.113592 0.29094 -1.70172
6120 2 21.7549 38.5305 43.6842 0.178878 0.37444 1.72604 -0.930471
6121 2 21.2734 40.2296 49.0323 0.187943 0.350842 0.434861 -0.515286
6122 2 13.8439 46.7701 38.1861 0.205908 -0.16218 0.85735 0.0459177
6123 2 24.5676 40.5576 44.8128 0.199437 3.09076 -1.09505 0.053926
6124 2 23.8371 38.282 38.6692 0.189636 0.959213 -0.779561 -1.15608
6125 2 19.8881 39.161 38.5701 0.194206 0.426345 -0.352787 -1.83226
6126 2 21.6037 46.7653 45.6055 0.179173 0.498183 -0.786935 2.50414
6127 2 15.4069 48.9945 44.2043 0.189978 0.793407 -0.878223 0.129594
6128 2 19.9425 47.7665 41.792 0.181801 0.70577 1.34658 0.504954
6129 2 19.1362 46.7354 44.7998 0.205446 1.99056 -0.0848964 -0.732388
6130 2 19.7436 48.1177 48.2677 0.191928 -0.919634 -0.413649 -0.413601
6131 2 17.898 38.394 42.4593 0.198438 -0.207275 0.376568 -0.536547
6132 2 14.3664 48.8974 38.9677 0.179016 -0.484803 0.75815 -1.41426
6133 2 17.4951 47.8767 44.6096 0.211308 -0.51102 0.310983 -0.783962
6134 2 22.1754 42.854 38.44 0.184668 -0.64992 -0.176489 -0.425219
6135 2 14.1837 49.1831 47.1452 0.205193 -0.0489605 -0.661642 0.363278
6136 2 18.4643 38.8919 40.006 0.172177 0.469776 -0.582829 -0.167981
6137 2 21.7744 44.5526 37.5415 0.198208 -0.0124248 0.265753 0.0761174
6138 2 23.1567 43.8967 45.2911 0.183831 -0.311589 -1.12285 1.46652
6139 2 14.3109 44.3747 49.6941 0.187575 0.591799 -0.573522 -0.116724
6140 2 13.5252 46.4989 47.9245 0.184737 -2.33585 -0.778913 -1.24845
6141 2 22.6268 49.7279 45.4809 0.190211 1.03363 0.26935 0.194594
6142 2 13.3623 39.8846 40.6218 0.175859 0.794592 -0.937945 2.23043
6143 2 21.7725 40.3365 41.5136 0.202005 0.721668 0.786646 -0.481826
6144 2 13.5616 47.4153 44.537 0.212863 0.789346 0.851765 -0.313111
