LAMMPS (30 Mar 2026 - Development - 7f680de296)
OMP_NUM_THREADS environment is not set. Defaulting to 1 thread.
  using 1 OpenMP thread(s) per MPI task
# Minimal SOG virial test: orthogonal box, single step.

units           metal
atom_style      charge
boundary        p p p

plugin load     /data/home/public/jiangzhen/dp/deepmd-kit/build/sog_lmp_develop_plugin/lmp/plugin/libdeepmd_lmp.so
Loading plugin: deepmd pair style  by Han Wang
Loading plugin: deepspin pair style  by Duo Zhang
Loading plugin: compute deeptensor/atom  by Han Wang
Loading plugin: fix dplr  by Han Wang
Loading plugin: kspace pppm/dplr  by Han Wang
Loading plugin: kspace les  by DeepMD contributors
Loading plugin: kspace sog  by DeepMD contributors

lattice         fcc 4.0
Lattice spacing in x,y,z = 4 4 4
region          box block 0 3 0 3 0 3
create_box      1 box
Created orthogonal box = (0 0 0) to (12 12 12)
  1 by 1 by 1 MPI processor grid
create_atoms    1 random 256 12345 NULL
Created 256 atoms
  using lattice units in orthogonal box = (0 0 0) to (12 12 12)
  create_atoms CPU = 0.000 seconds

mass            1 1.0
set             type 1 charge 0.5
Setting atom values ...
  256 settings made for charge

pair_style      coul/long 10.0
pair_coeff      1 1
kspace_style    sog 1e-6 spline cubes2_4 b 2.0 m 12 n_dl 2.0 remove_self_interaction yes use_finufft no

neighbor        2.0 bin
neigh_modify    every 1 delay 0 check yes

timestep        0.001
thermo          1

run             1
WARNING: No fixes with time integration, atoms won't move
For more information see https://docs.lammps.org/err0028 (src/verlet.cpp:60)
WARNING: System is not charge neutral, net charge = 128
For more information see https://docs.lammps.org/err0029 (src/kspace.cpp:328)
Generated 0 of 0 mixed pair_coeff terms from geometric mixing rule
Neighbor list info ...
  update: every = 1 steps, delay = 0 steps, check = yes
  max neighbors/atom: 2000, page size: 100000
  master list distance cutoff = 12
  ghost atom cutoff = 12
  binsize = 6, bins = 2 2 2
  1 neighbor lists, perpetual/occasional/extra = 1 0 0
  (1) pair coul/long, perpetual
      attributes: half, newton on
      pair build: half/bin/atomonly/newton
      stencil: half/bin/3d
      bin: standard
SOG virial check (analytic vs r_i-F_i): xx: ana=-0.0630387 rF=-0.35395 diff=0.291 (82.19%) yy: ana=-0.0544381 rF=0.0280625 diff=-0.0825 (293.99%) zz: ana=0.0213709 rF=0.065452 diff=-0.0441 (67.35%) xy: ana=0.000874211 rF=0.128377 diff=-0.128 (99.32%) xz: ana=-0.000350028 rF=0.0197886 diff=-0.0201 (101.77%) yz: ana=0.00274303 rF=-0.0172367 diff=0.02 (115.91%)
Per MPI rank memory allocation (min/avg/max) = 4.053 | 4.053 | 4.053 Mbytes
   Step          Temp          E_pair         E_mol          TotEng         Press     
         0   0              42582.875      0              42582.875      13200403     
SOG virial check (analytic vs r_i-F_i): xx: ana=-0.0630387 rF=-0.35395 diff=0.291 (82.19%) yy: ana=-0.0544381 rF=0.0280625 diff=-0.0825 (293.99%) zz: ana=0.0213709 rF=0.065452 diff=-0.0441 (67.35%) xy: ana=0.000874211 rF=0.128377 diff=-0.128 (99.32%) xz: ana=-0.000350028 rF=0.0197886 diff=-0.0201 (101.77%) yz: ana=0.00274303 rF=-0.0172367 diff=0.02 (115.91%)
         1   0              42582.875      0              42582.875      13200403     
Loop time of 0.00210485 on 1 procs for 1 steps with 256 atoms

Performance: 41.048 ns/day, 0.585 hours/ns, 475.093 timesteps/s, 121.624 katom-step/s
99.2% CPU use with 1 MPI tasks x 1 OpenMP threads

MPI task timing breakdown:
Section |  min time  |  avg time  |  max time  |%varavg| %total
---------------------------------------------------------------
Pair    | 0.0018666  | 0.0018666  | 0.0018666  |   0.0 | 88.68
Kspace  | 0.00020703 | 0.00020703 | 0.00020703 |   0.0 |  9.84
Neigh   | 0          | 0          | 0          |   0.0 |  0.00
Comm    | 2.0878e-05 | 2.0878e-05 | 2.0878e-05 |   0.0 |  0.99
Output  | 4.647e-06  | 4.647e-06  | 4.647e-06  |   0.0 |  0.22
Modify  | 5.88e-07   | 5.88e-07   | 5.88e-07   |   0.0 |  0.03
Other   |            | 5.057e-06  |            |       |  0.24

Nlocal:            256 ave         256 max         256 min
Histogram: 1 0 0 0 0 0 0 0 0 0
Nghost:           6656 ave        6656 max        6656 min
Histogram: 1 0 0 0 0 0 0 0 0 0
Neighs:         137723 ave      137723 max      137723 min
Histogram: 1 0 0 0 0 0 0 0 0 0

Total # of neighbors = 137723
Ave neighs/atom = 537.98047
Neighbor list builds = 0
Dangerous builds = 0
Total wall time: 0:00:00
